! Created with skrf 2.1.0 (http://scikit-rf.org).
# GHz S RI R 50.0 
!freq ReS11 ImS11 ReS21 ImS21 ReS12 ImS12 ReS22 ImS22
1.0 0.10770631959780781 -0.12813652401878495 0.24508757957882565 -0.07579715831804153 0.25251928953101865 -0.09293917853207996 -0.14091437608272436 -0.07772806128751406
1.5 -0.01862848847726149 0.026770286624192775 -0.23971127505874026 0.10719583194650494 -0.24239067100781023 0.10786666562392713 -0.045470920978605875 -0.009926260387727825
2.0 0.16096502170730298 0.02826729920702441 0.21957151801318486 -0.12044624748713141 0.21583459067934563 -0.13941497061345606 -0.16758927245842817 0.04845174401831548
2.5 0.04662121853597785 -0.10680529097795344 -0.1982616359985635 0.14284899369419624 -0.1890031427021432 0.14843346096556406 -0.15459188209544542 -0.07119210917413155
3.0 0.003242425117615534 0.07281246514234693 0.1784459188295257 -0.168684365683915 0.179136026196375 -0.1717804691247049 -0.046236994091461814 0.01945136063797833
3.5 0.16929552786494964 0.007507867892633162 -0.15519085111968386 0.17985552231981072 -0.1450292688777194 0.17658459692049852 -0.17200664390059578 0.07534591185038425
4.0 0.027186326570911988 -0.08352686286186656 0.13352222475953243 -0.1948953155872176 0.13215360072677207 -0.18656790033280857 -0.14372834186998015 -0.0670518160320128
4.5 0.04543517931038807 0.08063401758822944 -0.10953209519401329 0.20210556030097687 -0.10641734005321242 0.20297937597618287 -0.013122350590692356 0.026858978276717863
5.0 0.1642360407813923 -0.03585439299116204 0.08113835534323903 -0.2001102109034628 0.08885931719405339 -0.1950595414178718 -0.1598227177452979 0.0825467966816567
5.5 -0.002420408785051549 -0.07101187070045219 -0.05581925691088038 0.2122909950611392 -0.06675898325625614 0.21138051913605663 -0.13897631493413665 -0.0902870951563647
6.0 0.061271301622452035 0.07720696596462254 0.04317313141813813 -0.21389426083004534 0.042789227598486246 -0.2092570815928579 0.005503479234720463 0.004113398241437063
6.5 0.1328068891153883 -0.05768756460629842 -0.024671031570477252 0.19813033409115505 -0.03224871654827973 0.20929000221763316 -0.16429830347477448 0.0807754107497597
7.0 -0.026214075102079744 -0.029873116886812472 -0.006698554546421783 -0.20043091447274478 -0.0018384254274426551 -0.21080306193476642 -0.16535997574391262 -0.10892241172817758
7.5 0.08366997566855461 0.08876802847693961 0.020883812442597936 0.20821327289414784 0.013532761090813509 0.20679132384737114 0.0030147444572819456 -0.010906295213019003
8.0 0.11464401530572702 -0.05850681396774484 -0.02497695230645162 -0.19471511270187122 -0.03390558083836194 -0.20650221183957537 -0.17537508756852005 0.1002275839476002
8.5 -0.01655056226887867 0.009730645017071507 0.053212381011108006 0.18334316973904397 0.05884238929318379 0.19040817676354527 -0.19226566321464938 -0.10026976981831838
9.0 0.12192203460508194 0.07960369751353716 -0.07679195772765379 -0.18399495491962384 -0.07282872154750963 -0.19277107651801625 0.009088341496730216 -0.012489496708429148
9.5 0.10538294271337217 -0.07031422571475006 0.08281993588917957 0.17957051541702146 0.09277833972125278 0.1762151063587206 -0.16216208844631141 0.1293904088920947
10.0 -0.002021344355053018 0.02583462316352063 -0.10142766728074487 -0.16300887291514263 -0.10490374106133156 -0.16045489068552563 -0.20113623672404485 -0.08885384860502557
10.5 0.1385491145559736 0.05072502046595132 0.11927085130793323 0.14932450009445272 0.12702999721503794 0.15458201983987796 0.028312200273718523 -0.028666009923473013
11.0 0.07716354874303778 -0.07984800099013217 -0.13016548964016567 -0.13578698897495645 -0.1299235716266632 -0.1331994635962095 -0.1361514578796533 0.1391599059968237
11.5 0.0023966491679069373 0.045289019068518836 0.14713225192146295 0.11775480539454862 0.1420877153289814 0.12006858144130682 -0.2113209739238265 -0.08999761176245973
12.0 0.1417131832345017 0.03598682066116578 -0.1526938675873545 -0.10747076443783146 -0.1564760076199501 -0.10115535593530252 0.031047177472382195 -0.06256390981584921
12.5 0.05539024094267798 -0.06709075253522431 0.1491778321993885 0.0887088278866739 0.15198972550758547 0.09093353148102738 -0.12160079606824707 0.1384963547103538
13.0 0.02493962542740531 0.06732094749742651 -0.16017322333148232 -0.06117727056363315 -0.16334534259717148 -0.07030389783637497 -0.236678598080419 -0.08495288920639213
13.5 0.15559979990860004 0.01954645812240323 0.1718702510099856 0.05529920651164008 0.16510427012409765 0.05355615604208629 0.014934365239205966 -0.08593027019756415
14.0 0.04889071302147581 -0.05952272205882082 -0.16108378915057683 -0.05052142457342432 -0.16678202874531306 -0.047971210787406314 -0.11169337687603133 0.1476024508189466
14.5 0.050723721451140236 0.06794998398474945 0.1572916506385715 0.021345225310842444 0.1666171833206839 0.02226857003873187 -0.257240654069965 -0.06020909839551637
15.0 0.15703899377933925 -0.01145482033459892 -0.17032934182039966 -0.004365184180710934 -0.16819522512949492 -0.012518101097354262 0.0031188464091090303 -0.09591107481078656
15.5 0.03459399105211919 -0.05926338428714278 0.1716085626586391 0.005784595829331894 0.17156634036333068 0.0001797805079156445 -0.08698353304911413 0.15970836578018865
16.0 0.062159893349767736 0.06331825699322194 -0.15822284586039873 0.013784693747552985 -0.16065780198939802 0.019064819447394507 -0.2599003120109001 -0.03433851551286732
16.5 0.14083999227535343 -0.031066807075862513 0.1589258798212005 -0.03653902915944001 0.16640962111642912 -0.03227019785808819 -0.0010788067032156852 -0.11144822933258483
17.0 0.015581695100112876 -0.04399071731535654 -0.16259783573594935 0.04770600647382429 -0.16059491556434985 0.04752768362879254 -0.054719712683359664 0.15421933468338792
17.5 0.0733868209347533 0.06777579843154893 0.15147574487738324 -0.06150908118255638 0.14900477319895664 -0.058627242509302985 -0.25930091556140494 -0.01949214755613328
18.0 0.1311688547062787 -0.03777493257337033 -0.14378116856422793 0.07588717758884679 -0.14818129503328614 0.08000211834060429 -0.016172389533877368 -0.1356492928654127
18.5 0.013946771962815262 -0.024690901151516766 0.13349393129110865 -0.08647654137459918 0.13651245456923033 -0.08708530508133956 -0.035167506943000706 0.1374718174803987
19.0 0.09376320637283057 0.06335131753941167 -0.1165268648258752 0.10193928990666842 -0.1261089105651195 0.09747555331683308 -0.2664683642795823 -0.0038342388693206222
19.5 0.12436266429483617 -0.052657001044006044 0.11319590888336516 -0.114339808999013 0.11224583418165494 -0.11554772624151032 -0.04509348780513921 -0.14864354505624644
20.0 0.012759275622456137 -0.017119154706924107 -0.10482832242528817 0.11159898969303343 -0.10514472951873097 0.1168662919714477 -0.023840181915269813 0.12705843384636734
20.5 0.10227154621502756 0.05047978331856448 0.08013488104375793 -0.11670470116954235 0.08940124393177104 -0.1265486628599575 -0.2695731771842437 0.023363368388874796
21.0 0.10377379361365896 -0.06352413099943192 -0.07059264781858345 0.13403949567110687 -0.07260058357180306 0.13319065572873756 -0.06870326117735381 -0.14720813808152752
21.5 0.004318460639890015 -0.0035365020645534524 0.07333968591395935 -0.13521864839202277 0.0685396834074067 -0.13758919633064348 -0.005644225303133757 0.11936276776863075
22.0 0.105604819443081 0.046149344632173656 -0.05353257778339247 0.12759463261779777 -0.04853488989700571 0.1387293730922041 -0.25730095994947555 0.04948398822874345
22.5 0.08675492799262477 -0.05977036272726106 0.034406175880763425 -0.13884035907199385 0.03679537149953282 -0.14097295041394126 -0.08344402686705898 -0.14726645014898557
23.0 0.007003952670286428 0.018828845624322785 -0.030771056606187983 0.15026315948895197 -0.02811228634200134 0.14750669697893848 0.015454203511079699 0.0993895159291767
23.5 0.11704034155196986 0.043155074808614025 0.020985899626835978 -0.14238146226034237 0.012850015061426436 -0.13989135969870262 -0.24126319039335717 0.06306334127444602
24.0 0.0797230312497572 -0.057966687808911156 -0.0017844383603827243 0.14277155762922028 -0.0013622020895775763 0.1443405529603012 -0.10266159306340955 -0.15224807113890543
24.5 0.019501638781348956 0.030307612198694527 -0.013014999239238448 -0.14722576370110235 -0.01173268595214085 -0.1456864139065466 0.023177600900421945 0.0711115333149599
25.0 0.12735295050568998 0.028673808832799297 0.025656338278154386 0.142213665565545 0.01982377414934077 0.1375483761226064 -0.23194334084402413 0.07326742787997745
25.5 0.06696749149853962 -0.06171837751369863 -0.039676187081171245 -0.14035627409638302 -0.037310002582592 -0.13970392106216217 -0.12981591261532346 -0.14885322886891594
26.0 0.024238345081376348 0.03742503708944765 0.04879883263096962 0.13438382206267 0.04783688619670316 0.1350198180960806 0.020351717173682254 0.05063982260731207
26.5 0.12671453039635425 0.016788773402837524 -0.06094034254563306 -0.11996650561077178 -0.05527798813508774 -0.12982668025028068 -0.22171944557686651 0.08954505293473944
27.0 0.05027923414698433 -0.054249359926628084 0.0779510413478987 0.11650707078749566 0.07430388520124273 0.1217800905254051 -0.1506450128386149 -0.13277079890686827
27.5 0.03265547680026876 0.05242355099806541 -0.08123823465536353 -0.11595826230405955 -0.0808542519690769 -0.1171487027549545 0.020913866857628773 0.036423466844291257
28.0 0.13042309624665538 0.009993900860056536 0.08190702592733815 0.09891751645624404 0.09097823597541776 0.10886901198784299 -0.20074433188251992 0.10415602303783056
28.5 0.04436080990545136 -0.04388366157696234 -0.09794045183917806 -0.08701783412189051 -0.10181466671119649 -0.09359019278045427 -0.1599562877586329 -0.11768629521665645
29.0 0.0523886707295944 0.060539678312780225 0.10868366581700252 0.08797601672758447 0.10974167067628228 0.08991013231661119 0.023518779655631178 0.01629096926770247
29.5 0.1361240687516019 -0.004800119543308775 -0.10398970339897566 -0.0794374457635753 -0.11547959902505757 -0.07505228539237632 -0.17710016136205137 0.10585912296893008
30.0 0.03864102267537114 -0.04025297716672293 0.11244127803985565 0.06279561762863405 0.11885153111504829 0.06193709700103253 -0.16929269724797147 -0.10865125574867404
30.5 0.0675088178691831 0.05717839712402727 -0.12539726493613346 -0.05390390254014349 -0.1282479770730716 -0.053529073282263306 0.01553179779129157 -0.008048273573329483
31.0 0.13063498259181142 -0.023855312491446172 0.1264512329312752 0.04807032529218035 0.12510462333269387 0.03991400010508804 -0.16229467132283157 0.1019686100151099
31.5 0.02633352624194663 -0.032523355237407264 -0.1290726759699681 -0.033297616264056785 -0.1282363793862943 -0.029292701886370103 -0.18297043987372644 -0.09554543180211175
32.0 0.07695669973694876 0.05736835292031747 0.13286906265729972 0.018807449330669704 0.13257159224369888 0.015921222472215127 -0.0016334653610024742 -0.022611615602939845
32.5 0.11993579857774309 -0.03333511052260598 -0.13173030818020579 -0.006525585908527533 -0.12755669856465385 -0.0090180574262649 -0.15038756246025692 0.10252677926411762
33.0 0.020766596064700247 -0.015327876197946878 0.1330561912783438 -0.00866712466947435 0.1302668926878205 -0.0048514366691791945 -0.19048888040605236 -0.07393778714114367
33.5 0.09420489254740515 0.056898532705394876 -0.1315922118109725 0.017818624852877198 -0.12822846552609446 0.01666613380686774 -0.014363185722781335 -0.027821938690021655
34.0 0.11371795940508381 -0.043138690946220096 0.12245989885786515 -0.026509414722791128 0.12708804367166357 -0.022347279030940248 -0.1325805268142165 0.10217100398248821
34.5 0.023085599811771683 -0.0037546553020807805 -0.1179568541334697 0.04320767908301127 -0.12310858005437082 0.03884031467102562 -0.18617112405618413 -0.05500738333167336
35.0 0.10969953455227162 0.044061041519222854 0.1187649513018152 -0.052116996064847335 0.12017922219737094 -0.047128155391937446 -0.022431331042318554 -0.035181375348890695
35.5 0.09974326697707991 -0.05622140589885219 -0.11151833211494806 0.05363919181966242 -0.11815775537616295 0.057498905487981915 -0.11449972692483125 0.09140457195338085
36.0 0.02137806569845474 0.006509168720105288 0.10111241473570692 -0.06648343469470072 0.10725137634823259 -0.0692703438150546 -0.1804225353090553 -0.04530935033168734
36.5 0.11446077482075223 0.030629698182406778 -0.09848278046349127 0.07899064970011485 -0.1048330313649957 0.07891852466977654 -0.03600460701519268 -0.0447415213786939
37.0 0.0780361825561779 -0.059307819338430885 0.09590176306815919 -0.08217039493835251 0.09526870282954358 -0.08909408508172824 -0.10730753948899166 0.07578462828171745
37.5 0.022993761884938072 0.023907061791065068 -0.08411691036153697 0.08993064873405165 -0.08440965301200253 0.09471789901660085 -0.1792715757221876 -0.03614386647563434
38.0 0.1196781428387387 0.022028959055962517 0.07464442058221112 -0.10061024642229877 0.07661551148686897 -0.1062596216690638 -0.05498281870036874 -0.04552701094537441
38.5 0.06249556771400222 -0.0527484963814142 -0.06822064899561947 0.10763778660896227 -0.0642694547124663 0.10882397864053472 -0.10631933468409545 0.06664560589639905
39.0 0.0364652655055966 0.03898397573431074 0.05596643561175893 -0.11330758082777902 0.05467518698037726 -0.11362712704442755 -0.17468728827151853 -0.02242015748071241
39.5 0.12670427956412814 0.006779346260618696 -0.04419711559474241 0.11741095296225879 -0.040823287292376456 0.11948135454278483 -0.06707809674635087 -0.037043828790034664
40.0 0.05006310413254103 -0.04877482202013465 0.032712768307705406 -0.1195655000882366 0.03276762349873668 -0.11834867940625837 -0.10189442654570767 0.060142203597701165
40.5 0.0501832251837895 0.04379740155763882 -0.0181479565206166 0.12150522027205925 -0.020113445616292767 0.12196143902466679 -0.16137227418973546 -0.01300630708980107
41.0 0.12246139536102466 -0.012003487075761201 0.00871872088015584 -0.12235215847405499 0.008238190375916306 -0.12037883585527888 -0.07101382545727589 -0.031057514041131086
41.5 0.03308743919619851 -0.038795132370338326 0.00011118932218048304 0.11948647806867144 -0.001313926126126415 0.12133655353789494 -0.09800148068649848 0.047936202515235046
42.0 0.0615864540054061 0.04993240924066836 -0.013670281380455665 -0.11615771567955571 -0.012768236693911346 -0.11896022139027951 -0.14885228931065006 -0.014364575376265768
42.5 0.11338122577656645 -0.02213969647213431 0.022843118008702354 0.1163213901552973 0.02023599886709002 0.11680584339026182 -0.07654223505626723 -0.02893803562627179
43.0 0.024047641548356827 -0.019088329506036367 -0.029435961489994247 -0.11379628750408884 -0.03098136813457557 -0.11666209156267306 -0.1036290233651707 0.03461148860110018
43.5 0.08028268585630977 0.05368677723310268 0.04022250457092675 0.10769173225562839 0.04100662713454535 0.10978573858300547 -0.14406991640376518 -0.017926189573766252
44.0 0.1076291874762462 -0.03103077018631135 -0.05031330993651243 -0.10568759927099305 -0.049785858958640204 -0.10913923911367497 -0.0845264717651772 -0.021995344748645704
44.5 0.02573239296278045 -0.002376703119048665 0.05843087227454184 0.10281278342739278 0.06094151834239109 0.10261221743495122 -0.114342427517685 0.030520488629876618
45.0 0.09969618222551349 0.045541287154762425 -0.0674917873131861 -0.09507293463717335 -0.06779988294640639 -0.09635935945488518 -0.14013541851886033 -0.017579375009342653
45.5 0.09665613466571595 -0.04307674813143888 0.07711746235402699 0.08906925338832365 0.07945642805338711 0.0911792847284305 -0.08541459745174892 -0.009455501827127179
46.0 0.027115686214440646 0.0097285396151658 -0.08599703469302711 -0.08169220477944739 -0.08523306818250297 -0.08116518363721839 -0.11990632559513617 0.03235108810960674
46.5 0.10948843863174997 0.03269075921010603 0.09290505563313098 0.0714629931384121 0.09321973518699725 0.07418538263760018 -0.1318762875716961 -0.019763483343713972
47.0 0.07841136094911956 -0.04686286749516504 -0.09844835035873038 -0.06244231911988565 -0.10056384580842259 -0.0625944188654561 -0.07767692737875659 -0.0019496126995181412
47.5 0.03135481985113265 0.02646198479621678 0.10268887023564681 0.05083483678013571 0.10294634660569145 0.054175986518917835 -0.1227188256625063 0.03149006950774803
48.0 0.11769500528805053 0.022672231316317362 -0.10603023094517006 -0.03949344022223558 -0.10927329892130978 -0.04207907383175781 -0.12670420412978683 -0.029869163281884985
48.5 0.06561063870800819 -0.04276986886210963 0.10811409102915612 0.03198411061151856 0.10964525395451603 0.03146307680946455 -0.07130206753831281 -0.0017644060945425305
49.0 0.04569073333965182 0.038910333709138954 -0.10694252896179848 -0.02139332654896928 -0.11193362872488088 -0.022768944520189936 -0.1302656026091394 0.030597865185747204
49.5 0.12538130501659114 0.0063725088272964725 0.1074518094443797 0.01006967516081476 0.11123116385145591 0.009217170353982495 -0.13092060038281234 -0.039867627998776585
50.0 0.05511232724510947 -0.040651824312257404 -0.11002512666939261 -0.0033694842891299663 -0.11077749008489567 -0.002395589211072987 -0.06846156255989717 -0.0007179714577491415
50.5 0.059698959451366114 0.0417077501520004 0.10700032832975256 -0.004414331454126284 0.11011972594148633 -0.00857007227355886 -0.13911573249799689 0.03763946017242468
51.0 0.12280697165153763 -0.012784279939036514 -0.10456041145391985 0.015505908094781262 -0.10550009624000813 0.01774303532617963 -0.13751405375415424 -0.043290028878794226
51.5 0.0407734299139087 -0.03474122708611986 0.10653297143606244 -0.02501331028906678 0.10638563410952293 -0.025580097895858474 -0.06181229518299996 0.0026444000102845747
52.0 0.0695033484931948 0.043461671991746956 -0.10358843530131565 0.03247827898375551 -0.1006891983760698 0.0350489978298233 -0.1404120448107579 0.04928984899108586
52.5 0.11369153529317066 -0.02481490721308095 0.09826840480743954 -0.04211950758667902 0.09730533928641877 -0.041970344840248634 -0.1409073742016548 -0.045522802941727614
53.0 0.031106962278405148 -0.020240911953237278 -0.09503289128311815 0.05294015848239757 -0.09499625687296495 0.052464302291338256 -0.05012055246642559 0.00024050695333173683
53.5 0.08298429228259144 0.04524857546638033 0.088541420589102 -0.061445442265730996 0.08782540659334105 -0.05765093311949781 -0.13630896254268218 0.05704007920061465
54.0 0.10679285328271788 -0.03330302553034398 -0.08153221766853049 0.06933112045199134 -0.08365297562445366 0.06672548202607596 -0.14602779385631293 -0.05129242528130359
54.5 0.030246064309513564 -0.007404175606136054 0.0750662996493665 -0.07569826439877525 0.07621464768542502 -0.0750990949475231 -0.042174758223395004 -0.009867395344260482
55.0 0.09675915921467611 0.038455748386400104 -0.06429831868901018 0.07937338389269355 -0.07031944449084321 0.07874852380431757 -0.13393458733829328 0.06206637746702746
55.5 0.09606282040668396 -0.043379482873244606 0.055086534483460035 -0.08578903050484352 0.06053937032611141 -0.08740504380100811 -0.1577973828572809 -0.0549745937172144
56.0 0.028724013236984786 0.002322593929516466 -0.050565958559242404 0.09056665638203007 -0.05235352479306005 0.09121360770717621 -0.04071123759715243 -0.01967525006277175
56.5 0.10305132708405071 0.029410219761357614 0.04217481873914287 -0.08852308572979244 0.045109637060020275 -0.09524034473547482 -0.1320054255270743 0.07068838275952476
57.0 0.08062961410417367 -0.04631830037860353 -0.030889182575220952 0.09149495969599783 -0.03219113899571338 0.09754439231666989 -0.17030249539529108 -0.05086175656499763
57.5 0.02907483022234113 0.016178659363168063 0.02462195525250573 -0.09805812933519335 0.02540357969311376 -0.10013421390771411 -0.03927886373091232 -0.026484477227844697
58.0 0.1079108838238654 0.023564014721542924 -0.020311002072980474 0.09627629682387567 -0.01544321752616449 0.10104123493406432 -0.12371039386623386 0.08110337000094986
58.5 0.06936257983621286 -0.04278805568128537 0.009624481210450678 -0.09516476074158385 0.005554677604026469 -0.09831026815655146 -0.17770262437018575 -0.04389605282365051
59.0 0.037434850807329 0.02870252912747584 0.001151893511843797 0.09928405957264617 0.0025476201841833756 0.10081966265361882 -0.03583113775198934 -0.03615477723026719
59.5 0.11467040755456152 0.015152503234926031 -0.0070658268903647 -0.09951748089707604 -0.01096435690781811 -0.09685885464176049 -0.11065074491601266 0.085824571226422
60.0 0.06182314123928517 -0.040400377235417145 0.01597513613054019 0.09681139004875397 0.0179976597626639 0.09410288041461694 -0.18369299912970977 -0.03913140809445548
60.5 0.04725367743980173 0.033845580841231244 -0.02675951794196918 -0.09491196401376516 -0.02795885569630751 -0.09362855934251697 -0.03685284602612759 -0.05051900139140383
61.0 0.11598780564462083 0.0028815167549347018 0.034687590914590144 0.09057583176336462 0.03233582620101786 0.08876660884700652 -0.09986550929112258 0.08552554866164723
61.5 0.05157757552968035 -0.037115747023138586 -0.04416416871822494 -0.08612456640852399 -0.0402274205563125 -0.08601133388491553 -0.19262283421003656 -0.033151513404449245
62.0 0.053854469354968675 0.03834156547908998 0.05131393728013541 0.08285765176991769 0.04896877243721954 0.081629549321449 -0.0447865104486731 -0.06270671542433133
62.5 0.11299185180879415 -0.004963079008999655 -0.05380649739316854 -0.07531687030802484 -0.05233608282285967 -0.07867910954703024 -0.09131842064835641 0.0860319918176014
63.0 0.04413404566038837 -0.028132397522279022 0.06156044000852565 0.06661697053814528 0.0608919015141024 0.07236112345228124 -0.20067651750680326 -0.021354524006361394
63.5 0.06413036543000006 0.04344076559833758 -0.06957490998085344 -0.06351911192253872 -0.06692047127058234 -0.06657701897088328 -0.053625513848065805 -0.06962141598482394
64.0 0.1123781611805285 -0.011290949814333711 0.06875040760219635 0.06004954703261237 0.07206798419604277 0.06307233321323612 -0.07974850144697107 0.08719982312914895
64.5 0.04217560188629996 -0.02046259595017727 -0.07175156114400592 -0.04980870243700657 -0.07709905077343267 -0.052915852787932614 -0.2025159461584886 -0.007440028228371072
65.0 0.07609967303973049 0.04231114149077695 0.08013679166381403 0.042748254392952746 0.08215164526262302 0.04699736169965358 -0.06035038846078959 -0.07598797653343475
65.5 0.11029338955236241 -0.020847600883926277 -0.08269340411456565 -0.04126704378455145 -0.08659741436839934 -0.03986655615668371 -0.06543414442564759 0.08321010306707022
66.0 0.03961000647763438 -0.015669840011994354 0.08276314689336015 0.03303395093611932 0.08669078252834495 0.030068738028015747 -0.20092273140591593 0.003171324544961467
66.5 0.08335970872092063 0.03804442648407969 -0.08718443125410959 -0.02246809208681955 -0.09128179370835454 -0.02220878292584398 -0.06934523698992753 -0.08436733839195289
67.0 0.1027626155462159 -0.028575889253464243 0.09074271411810465 0.01646185702797766 0.09132356480719286 0.013842107912203645 -0.05477408795917233 0.07386614684988782
67.5 0.03565955880641052 -0.008061624137600122 -0.09111683126884774 -0.008274961422341425 -0.08959141159026371 -0.006486473164909069 -0.20059829710333216 0.012484800982602837
68.0 0.08926535099726358 0.03625615640407769 0.0910974329033984 -0.0012386292863066956 0.09108309334927284 -0.003671638183269967 -0.08323596366990489 -0.08982036848512
68.5 0.09609477195859761 -0.03144280925277024 -0.08912524440814783 0.008378563562981747 -0.08845887231395828 0.009248510283248967 -0.04863456222376315 0.0650804265706599
69.0 0.03658605193250641 0.0011815696649805894 0.08604832694826123 -0.01845851816585359 0.08661516375657599 -0.016101455065063462 -0.19950711730732185 0.024702934068922267
69.5 0.09796341457002719 0.03226095973850723 -0.08538682470049712 0.02688877488453855 -0.08387088581068354 0.025517247244908888 -0.09690881721087144 -0.08909157942279279
70.0 0.09105191056265352 -0.035917143000952716 0.08239958570114446 -0.029331134792117984 0.0823205277986864 -0.029206568670188192 -0.04216268690840872 0.057841273846345805
70.5 0.03880715969161101 0.006616570086528827 -0.07495195157500326 0.03637019339985955 -0.07868436336853583 0.036653159165411835 -0.1930463104029777 0.03754495063733514
71.0 0.10325185514457962 0.024136904103152564 0.07203440329079207 -0.04592012164302294 0.07408895849188796 -0.04339634390076541 -0.10676960772514704 -0.0864637286373445
71.5 0.08183441745873121 -0.04041427456701122 -0.07244791932221159 0.04862994677569541 -0.07325009192666332 0.04859004047267201 -0.03465670800578196 0.047643621924711756
72.0 0.03894907259324181 0.012689489801943657 0.06524174726651731 -0.051319863053939055 0.06659190823360019 -0.05462577785681613 -0.1830993630166835 0.04577182877939491
72.5 0.10501199396454784 0.017946316383383683 -0.058416222672961274 0.059525350426880064 -0.06205156248069132 0.06019781045694992 -0.11613350154768959 -0.08517860660956063
73.0 0.07123803262622007 -0.039469352186700744 0.057349121928706746 -0.0660278204189427 0.058378048947410555 -0.06696294492211431 -0.03118727090290799 0.033638839864200375
73.5 0.041672539017459986 0.021762624363221895 -0.05206799738592452 0.06848178845961705 -0.050617160146033416 0.06965786395418448 -0.1747663670248583 0.050420540786236145
74.0 0.10843422437428382 0.012908233378779383 0.04341421419981266 -0.07305118277644927 0.044633060266711176 -0.07560493198760249 -0.1278985164078093 -0.08204076516217672
74.5 0.06431827393689366 -0.03647757201334624 -0.03725406418798942 0.07847231902074107 -0.03732846987448265 0.08004131450405744 -0.03335797993796388 0.02127793769546881
75.0 0.049105846510203915 0.028319090115285758 0.029379613080135182 -0.08132673420296883 0.030641627794643616 -0.08067721492838882 -0.16740761011320285 0.055845523220527486
75.5 0.11157040958291002 0.00392283283010039 -0.02113732326002925 0.08359936450610396 -0.021300751287055785 0.08478896862564116 -0.13844713956721671 -0.07374102830727665
76.0 0.05667223676685568 -0.03494102539059277 0.014905258383606488 -0.08434759139725191 0.014070776157251054 -0.08529481136336536 -0.03629139439121072 0.01268791457461931
76.5 0.0552919792799321 0.03168680418992853 -0.005639536739557759 0.08245383656626144 -0.007550285152486346 0.08549660467723809 -0.15692250340167674 0.06115242765417862
77.0 0.10947179389729922 -0.00527284626683949 -0.0033485474285466074 -0.08312157996499749 -0.002697726053310304 -0.08474581509635859 -0.14372919016811325 -0.0638455401369377
77.5 0.04709771050053246 -0.029139685646727875 0.0073770015773796565 0.08405912072553638 0.008013061510907683 0.08422512093567674 -0.03813343686390882 0.003848319628681952
78.0 0.06213617040680698 0.036622400039187895 -0.013092811454071714 -0.07925178837735428 -0.015416393073624796 -0.08271784331571949 -0.14433186596007794 0.06162628292319234
78.5 0.10678505378395255 -0.011412519459109469 0.022121044911237744 0.076827723286996 0.02279485539655295 0.07877210707161607 -0.1465744977607861 -0.0564630487008867
79.0 0.04187911543128036 -0.019369327439073103 -0.028191261898389927 -0.07855655976291318 -0.028469707754761944 -0.07869837462271527 -0.0428382442651811 -0.006635020054511218
79.5 0.07329594875403837 0.039480782867934695 0.03169984835952951 0.07511435381767316 0.03494950065367442 0.07432324620799129 -0.13489104516247186 0.05775419424219976
80.0 0.10466639809525086 -0.0188957333391129 -0.038910238058158735 -0.07022250483696366 -0.040123390528532345 -0.07067994174596762 -0.15043652561300352 -0.049349122854830695
80.5 0.04022731271309914 -0.011269205981717401 0.047243199961806356 0.06873488367723089 0.047429362280246884 0.06874183716228897 -0.05207049151519992 -0.014215868213877814
81.0 0.08454551142049443 0.03629856675406922 -0.05234075960414891 -0.06525212578446818 -0.05135702699148657 -0.06327008285227666 -0.12879358584657336 0.05437889612118642
81.5 0.09827108737717938 -0.027730600432269367 0.05780256859881283 0.05941429357345962 0.05724536954735599 0.059535249175843706 -0.15293946049167864 -0.03937149867938487
82.0 0.037731700110554905 -0.003017081777637412 -0.0642376309975939 -0.05371313762035924 -0.06368588809742524 -0.053976768709882626 -0.06113942935042552 -0.01638311620583814
82.5 0.09212578128891319 0.0314757652198559 0.06841079330776138 0.0464848889392645 0.06646057768112032 0.04911870768097178 -0.12203997852277547 0.051768039256988536
83.0 0.08826125994885112 -0.03194507955060094 -0.07255621027856567 -0.03934505478117523 -0.07241215762802129 -0.04217219090052066 -0.1503333117210511 -0.029202343784373443
83.5 0.038496437823638284 0.008746849844579479 0.07565765200702679 0.03327093328667361 0.07561465431947761 0.03509013358013792 -0.0671482895585199 -0.017094701736722027
84.0 0.10058514587358891 0.02623089687671451 -0.07548350676497284 -0.02572684371774216 -0.07864075868844589 -0.029335837402307916 -0.11474169436356278 0.04601774081875137
84.5 0.08009433291470386 -0.03334263701495915 0.07717099921076644 0.017695209664225352 0.08067732094903604 0.01970176467273021 -0.14498957279818173 -0.02337982874118213
85.0 0.04500328790410576 0.01813340747057487 -0.07958976115052724 -0.011927811887596198 -0.08194796003871227 -0.013268919491642488 -0.07332557309139724 -0.018777191151741365
85.5 0.10802185950092681 0.015891890167748158 0.07810494045302334 0.0067583616225750254 0.0829809976745292 0.005216529675719156 -0.11156703008890906 0.03724688922295207
86.0 0.07068509204924038 -0.034879405161167255 -0.07760672578026175 0.0007855861498555154 -0.08090191267488937 0.002772577907043843 -0.14132703852601936 -0.02024279200130326
86.5 0.05177810600525065 0.023594797495518002 0.07907824239318474 -0.007928246138518745 0.08140075469318148 -0.00957680524068935 -0.08159353414363976 -0.018034763872608602
87.0 0.10936590701794506 0.003390424105289718 -0.0782093932473366 0.012951231001995423 -0.07849786424133906 0.01714159606722809 -0.11299239205031189 0.030600430100446184
87.5 0.05872634044285298 -0.03221605749287458 0.07644309987055162 -0.020016665390949113 0.07593929536191484 -0.02271804765357799 -0.13796320767701706 -0.016198179590843815
88.0 0.058652821074794366 0.029300590552669627 -0.07505611996761573 0.028226577041969247 -0.07410717722286017 0.030256374399392914 -0.08790171168569007 -0.012643300769763327
88.5 0.10705767862089541 -0.006246635099895795 0.0725821393091186 -0.03466205450549049 0.06978113131638898 -0.03491812761099628 -0.11446221854838472 0.02706019723431884
89.0 0.049784780252231924 -0.02386918227165168 -0.068943105754005 0.0416477036210108 -0.06736144909009305 0.040797203508932615 -0.13163820592712788 -0.013024130184056031
89.5 0.06965064448845942 0.033288332751876176 0.06404914391538176 -0.048328276028100685 0.06272658331235344 -0.04690200641664252 -0.08927014248733689 -0.0066714288777215466
90.0 0.10445240621930023 -0.015804464183362066 -0.05832967489745729 0.053382120358896924 -0.05926389638866937 0.050572041289151666 -0.11516528198086341 0.02299336414301374
90.5 0.04515156161185815 -0.015560089933122313 0.052537328282664705 -0.05876369939043489 0.054430107858351104 -0.05696736319639983 -0.12444894715750687 -0.01461077487319447
91.0 0.08080043509727126 0.031058005490471673 -0.046731181387841776 0.0623700616008738 -0.049062353332345064 0.06068183812913556 -0.08892278697525327 -0.003302334027052328
91.5 0.09710288345232836 -0.025821722435095975 0.04047800454794699 -0.06438890784679992 0.04460248033360238 -0.06530238966038437 -0.1186559318661514 0.01806355605805542
92.0 0.040684542851867705 -0.0064628130872901556 -0.03400442574624583 0.06781925580956702 -0.037032573397414593 0.06929000769985452 -0.12096610723334869 -0.019282591741975028
92.5 0.08839624136301946 0.026953931982015466 0.028787926007083714 -0.07008319881845065 0.03179080828844633 -0.07218296052470886 -0.08948709646076684 -2.2242277309890987e-05
93.0 0.0861280094038071 -0.03070108223497077 -0.02338741307968001 0.07074419232510908 -0.024185120300387795 0.0753892923469788 -0.12530807685802556 0.016545205993645114
93.5 0.03976536142128634 0.005917237717606911 0.01637979968420808 -0.07284386198360433 0.016713658560930936 -0.07614077609658541 -0.12028806870492664 -0.022723668584188277
94.0 0.09598137119136835 0.022666991492307588 -0.010623679085038794 0.07475632415642254 -0.010000622333970552 0.07833193805445848 -0.08823381754529395 0.005338955213310029
94.5 0.07675633654068202 -0.031296532525958126 0.005164834096632901 -0.07512054867510883 0.0018156462266235892 -0.07725288329370508 -0.1304911020800096 0.0194368573827785
95.0 0.0449739528942385 0.016931617358694608 0.002649233248498559 0.075385585852866 0.0046868282495902795 0.07678480700921492 -0.11895546626650366 -0.025613393044415636
95.5 0.10329144765767573 0.014483847615908948 -0.009871694972926824 -0.07536367534785711 -0.01246295026242744 -0.07590791620723245 -0.0826742185500778 0.009426817739259265
96.0 0.06809562150817346 -0.03149044160453594 0.016547578342168908 0.07426290191469363 0.01799067639350194 0.07252454065737719 -0.1327623194191894 0.022747388775787695
96.5 0.051785827612154244 0.023521522274724035 -0.024164565909983393 -0.07191034950139351 -0.024824477245899427 -0.07097081089886298 -0.11813001749146056 -0.031082987866805575
97.0 0.10540731342035746 0.003910283147658832 0.030252692545812945 0.06848831122089513 0.030617378128098543 0.06720351412169252 -0.0761301166853935 0.009121644801529143
97.5 0.05774127821651268 -0.0284685707371381 -0.03623257721898732 -0.0641426601828969 -0.03466400296853678 -0.06426480262657049 -0.13524379035263764 0.025286586401132925
98.0 0.05863295255015252 0.02956263435249971 0.04254255304606682 0.05993571530917338 0.04120092230862232 0.060249404666878024 -0.12146058145813082 -0.03760489849406192
98.5 0.10445017666757339 -0.004108651900032869 -0.045804389968828366 -0.05623862591100438 -0.04463315867115084 -0.056535769118549135 -0.07176635458062755 0.006927418648621453
99.0 0.05057433815282454 -0.02100652935423044 0.048840427989211746 0.05061693746801481 0.049200480159897766 0.05309730565703909 -0.13862830562232054 0.030095061004033807
99.5 0.06886838221045061 0.03360952240618255 -0.053915366186932004 -0.04499585067051244 -0.053631937082163794 -0.04724325794309625 -0.12782109801984895 -0.041055155095999885
100.0 0.10344627059826812 -0.012009843224300865 0.05712937798223809 0.04226436083678018 0.057143615050889426 0.04415002187359213 -0.0677257591802436 0.005418701657872533
100.5 0.047324038773141675 -0.013936919579897677 -0.058432742448416335 -0.037616065083417694 -0.06103590603140906 -0.038347733012265475 -0.13932581736352057 0.037915192848593265
101.0 0.07930417080894335 0.03233679425902911 0.06170912201545459 0.0306760227574505 0.06349831977992482 0.03239649037661986 -0.1334378993534395 -0.04179842343750314
101.5 0.09928720954715659 -0.020874472760509827 -0.06565277440306148 -0.026417535932563536 -0.06752566685673406 -0.027558141367652098 -0.06182133046464704 0.0025711556800368353
102.0 0.04442323318418621 -0.007637289901991464 0.06731005276561594 0.021887178297253698 0.06843740414738023 0.02056614366371244 -0.1359833302022729 0.04499836535665555
102.5 0.08642488596374626 0.028662488198418126 -0.06835581586553947 -0.014508327679656763 -0.07010839025619954 -0.01440102785891594 -0.13842175875702956 -0.04283830234696136
103.0 0.09153376438061023 -0.02650325644355147 0.07012925143452654 0.007967752133552875 0.07185773006588397 0.007243369515117826 -0.05652582137736774 -0.0041500998140501745
103.5 0.04280580899040244 0.0008680791649200537 -0.07049699246984428 -0.0013303468089768957 -0.07040020822434577 -0.001543677392330614 -0.13171414203263843 0.049586785854030944
104.0 0.09271279681060493 0.025401493196722556 0.06969009502925788 -0.005881516962317348 0.07047421069036222 -0.005789316922373183 -0.14554322460934424 -0.0437060628084741
104.5 0.08481600499391205 -0.02863412710789125 -0.0685210709529717 0.011208252392012476 -0.06882456580332681 0.012287363824212147 -0.05492649929870022 -0.01241214751976141
105.0 0.04545413751480029 0.008760808832631391 0.06512356340294838 -0.017115907339941016 0.06692516466975675 -0.016776883640058787 -0.12802866520049339 0.05410533909631118
105.5 0.09902477807153008 0.019461871908696082 -0.06229031858382082 0.024018044773301446 -0.0639222219086154 0.02389134135978598 -0.15410556311223514 -0.04118152023313977
106.0 0.07845981203082548 -0.03097218432903011 0.06155382266160969 -0.02798918165703391 0.061347538764906374 -0.02818930697453164 -0.05539231716490614 -0.01918177503810133
106.5 0.04879371851957476 0.013628973085604512 -0.05742817170437463 0.03069723339840145 -0.05888213622661656 0.03263610862237967 -0.12248511485338127 0.05965584202642047
107.0 0.10164202510159186 0.01182761361772934 0.052506431846879545 -0.03620382763199982 0.05393084677325952 -0.037412475150606445 -0.16058524653278977 -0.03557643528677788
107.5 0.07012509331796224 -0.03141052653648965 -0.05151903646362648 0.041488656895187354 -0.05189117507320809 0.041268846654340226 -0.055476343455438074 -0.025644961031984208
108.0 0.051445245820558795 0.01849504218780884 0.048991761385337694 -0.04346931053978813 0.04792952435740735 -0.04519991179038562 -0.11385889382067284 0.06337454293099024
108.5 0.10187451178317662 0.006017545394017488 -0.043196085551136694 0.04682846905327554 -0.043137817903784396 0.048023129440220046 -0.16472089073139845 -0.029999705344966994
109.0 0.06288534556250558 -0.02814018280777711 0.039468916880921176 -0.05247176340168543 0.04015116157523601 -0.052700401401527035 -0.05654848260679594 -0.03395188824252511
109.5 0.05622537609051087 0.023779009209981737 -0.03609611045459442 0.05586150666445627 -0.0351923738764699 0.054949201911598605 -0.10498069020676798 0.06349428529218877
110.0 0.10265551035260531 0.0009412874574031509 0.030344249616772907 -0.05795362775423449 0.03052653075648621 -0.05745157499301491 -0.1689724008213294 -0.024828997301670142
110.5 0.058529132087281256 -0.024457237273415557 -0.024590186567096963 0.06107575543689372 -0.025079285290557325 0.061435138656710894 -0.06113473210250267 -0.0424974061234219
111.0 0.06264644590631689 0.026118291149433183 0.018452900603453545 -0.06255695565979033 0.020375553268521116 -0.06214819543524137 -0.09786452195601372 0.06221047316734222
111.5 0.10216955302264728 -0.005709197322532876 -0.011765912353382599 0.06347173984081182 -0.014305365770107478 0.06410193373989284 -0.17347819167542688 -0.017697772570330533
112.0 0.05384335786796718 -0.02142645423815294 0.00683567909897485 -0.06474436934539844 0.007625688053276614 -0.06532776368335198 -0.06794316218711682 -0.04830131745406768
112.5 0.06733954748127383 0.026936458876912827 -0.0020035006394771215 0.06278359332589399 -0.0032116933884005078 0.06545704800164398 -0.09081187710007099 0.061246796464184676
113.0 0.09901129929058063 -0.010923388438230229 -0.004766629278359873 -0.0610281020481329 -0.0039928382285047736 -0.06480059188123548 -0.1754487010684859 -0.00843538641403775
113.5 0.04930424533658565 -0.01595071781888882 0.010030780948320411 0.06230119956389999 0.00970665935051826 0.06378372235113158 -0.07414684251033084 -0.05206078035539966
114.0 0.07237725623219443 0.028587588090418236 -0.01244969767725719 -0.06074751834938158 -0.014533540311570987 -0.06308657965880632 -0.0823519626349552 0.05875947867625846
114.5 0.09636107752115133 -0.014266285423672129 0.017413320431088574 0.05710933597481333 0.020345470062042716 0.059519622930060224 -0.174264461167502 4.565820821012933e-06
115.0 0.04775292277825916 -0.009626528361870746 -0.023993839889988853 -0.05677740440191545 -0.02507190215438093 -0.05793436914044828 -0.08025203318541058 -0.05606635534756633
115.5 0.07924399330605467 0.028614611079636258 0.027326023971316345 0.0564366870178583 0.029737912904721567 0.05553462380004706 -0.07466347967612774 0.052998512761642476
116.0 0.0941261979670856 -0.018434804335269582 -0.030726086119462592 -0.05283686970152844 -0.0331083458568972 -0.05132200132279916 -0.17242777711000817 0.006671938237420447
116.5 0.047386701641166484 -0.004916318888876371 0.0369673359971097 0.0497267415213899 0.03796484610788958 0.04914369201613394 -0.08840250189041036 -0.059551718668618844
117.0 0.08511137242594105 0.025790434713174368 -0.041800568931001536 -0.04719094311483874 -0.04126189749243145 -0.045524539068558405 -0.06996000567008469 0.045966718039753655
117.5 0.08959690028035511 -0.0229131676164818 0.04537668094608521 0.043169151686077246 0.04375074613166253 0.04198986897211772 -0.1707513285152741 0.013567708954460096
118.0 0.0462428688539719 0.00021024841343372314 -0.04963536720470729 -0.03855773888577818 -0.048503516828983025 -0.03807191415765242 -0.09776427864724699 -0.059963764136732024
118.5 0.08926751092228488 0.023124854212965583 0.05203160210324563 0.033498478552878776 0.050552719284970335 0.03448034671655056 -0.06683445010811914 0.03987977729033384
119.0 0.08402991622884205 -0.024829139109484123 -0.054228490425372734 -0.02750269471631583 -0.053365802772302205 -0.030442534127650894 -0.16717923449397387 0.021300127566351676
119.5 0.04713277223049711 0.006990732727180253 0.05737648618006684 0.02261542864981145 0.05651252640132324 0.024761516467804553 -0.10548731384744908 -0.05768329328681472
120.0 0.0945063469079219 0.020055574075358722 -0.05746710850438491 -0.018976645358226595 -0.05839535903642687 -0.021211630201396624 -0.06347021203653136 0.03363489241909393
120.5 0.07950420210575015 -0.02618351268582369 0.05686311620584025 0.013195473652356971 0.06023818808454167 0.015340771513218481 -0.16084041361480397 0.027448288339534273
121.0 0.05040824482220485 0.012196321047175128 -0.05902348153239859 -0.007257855310613704 -0.061162276650578974 -0.009348564255936324 -0.11146363619512896 -0.055259368723159744
121.5 0.09911073155417367 0.014090674232353812 0.05998278179154639 0.004460764365510925 0.0627446700589404 0.004637837156175798 -0.06120172562044112 0.025523760923634477
122.0 0.07368167474232176 -0.027821123963708536 -0.058438533284884416 -0.00036733672772952666 -0.061737626504737984 0.001739722078164837 -0.1541409164186303 0.03060816373968011
122.5 0.053388772649508635 0.016156937766564856 0.0585844101115643 -0.006280809709225306 0.06131259745297468 -0.007244277795405602 -0.1177701568525189 -0.0527794260182391
123.0 0.10068106044843562 0.007217905156987709 -0.05960954530579059 0.010853981664609038 -0.06089152921989573 0.013007167862054822 -0.0621890328701918 0.01708979558862322
123.5 0.0661494786269289 -0.02702439411858986 0.05853569080938132 -0.014833739477466966 0.0579114055593013 -0.01760384009840321 -0.1486273821343499 0.03270195251822426
124.0 0.05702750650190346 0.02098921086391578 -0.056541990428338046 0.021046584868010962 -0.0564301744231348 0.023065842485107145 -0.12419390775927712 -0.04812289822454639
124.5 0.10109256049832498 0.0014485141892171126 0.0548144170320118 -0.026554389475977328 0.05368026930217342 -0.027827189842676483 -0.06518971311004118 0.010904883532964049
125.0 0.06003792861127042 -0.023284962620762524 -0.052140823978032595 0.0314932920486173 -0.0508120996329177 0.030932335464104708 -0.14269681069289292 0.03492391110154798
