! Created with skrf 2.1.0 (http://scikit-rf.org).
# GHz S RI R 50.0 
!freq ReS11 ImS11
!
1.0 0.21711407940577035 -0.14934478444398708
1.5 0.1423525433703722 -0.1899296056151634
2.0 0.05623888306882828 -0.19517541881359085
2.5 -0.02498178260078103 -0.16250937006664773
3.0 -0.08465676443772982 -0.09700372180423784
3.5 -0.10972033943941191 -0.01135469735793818
4.0 -0.0944913307898289 0.07661716431946848
4.5 -0.04249160046175582 0.14849207007380966
5.0 0.03470134066368251 0.19002864872634234
5.5 0.12093583688702479 0.1942438678367617
6.0 0.19958595317063127 0.16198604057199523
6.5 0.2567636984898774 0.10057103825876644
7.0 0.283125156707728 0.02162775157217508
7.5 0.27458181718500574 -0.06099629023767455
8.0 0.23247009373656086 -0.13303063836699883
8.5 0.163499148232394 -0.18149043620538602
9.0 0.07936889119936777 -0.19660618755380022
9.5 -0.004414989034072669 -0.1740030495131591
10.0 -0.071032950988375 -0.116590433154378
10.5 -0.10611442078648885 -0.03509485581787387
11.0 -0.10173937253183303 0.05374526650548332
11.5 -0.05892919778295613 0.13126618960741276
12.0 0.01268909448244264 0.18177186355989822
12.5 0.09785924001197228 0.19619629803372549
13.0 0.17978296437177266 0.1733446878034685
13.5 0.24365167175610644 0.11895661465415819
14.0 0.27882170153527586 0.04367225739972076
14.5 0.27976856764276725 -0.03911716821797985
15.0 0.2463595635524895 -0.1151333953645449
15.5 0.18385512849734625 -0.17090794224472086
16.0 0.10265051071153661 -0.19562832838482358
16.5 0.01736487853451993 -0.183270209792559
17.0 -0.0552627945604094 -0.13464564942085427
17.5 -0.09983844277027049 -0.05841319080407306
18.0 -0.10639121858046045 0.030039819566912925
18.5 -0.07343288861708777 0.1121445447521926
19.0 -0.008439299770767641 0.17100928950633393
19.5 0.07451194839242628 0.19557361079539462
20.0 0.15869450264926857 0.18253362625088168
20.5 0.22852664094214825 0.1359108855842847
21.0 0.2721269645626004 0.0652102040885563
21.5 0.2825520348102198 -0.016757249671409097
22.0 0.25820273819794465 -0.0958166186046073
22.5 0.20288045008519395 -0.1581400136164481
23.0 0.1256228199919905 -0.19202258703630545
23.5 0.04002366428744732 -0.18994381947507422
24.0 -0.03750225083090958 -0.1507045537087821
24.5 -0.09083645351282003 -0.08082845982609989
25.0 -0.10819048870025762 0.005898915687722491
25.5 -0.08561148849145542 0.09135955163702934
26.0 -0.0282553112923183 0.15777466905420218
26.5 0.051268653450995676 0.19223277599366284
27.0 0.13658339204601466 0.18928886333190936
27.5 0.21151840664656218 0.15111114548786958
28.0 0.2630413677673481 0.08591179977423882
28.5 0.28281719378405434 0.005784661150198692
29.0 0.26778527584622136 -0.07531751555297653
29.5 0.2202809888298049 -0.14333151007794345
30.0 0.1479436056120892 -0.18580875595945498
30.5 0.06322450490617638 -0.1938934714879606
31.0 -0.01800880771063916 -0.16448917691337517
31.5 -0.0792132852126668 -0.10196360569863436
32.0 -0.10705199035197735 -0.018291565413790106
32.5 -0.09521223506642863 0.06920698695880335
33.0 -0.046411810385979954 0.14220800484750565
33.5 0.028482362518925206 0.1861460753308985
34.0 0.11373889173338439 0.19344639025353177
34.5 0.1928149785106615 0.16430659801947084
35.0 0.2516402193210532 0.10548675330432061
35.5 0.2805283761086381 0.02821686679745075
36.0 0.274966427298568 -0.05389669981047523
36.5 0.23582059781420617 -0.12667782345622797
37.0 0.16930279806214274 -0.17707787265355177
37.5 0.08662784519949383 -0.19506890298195423
38.0 0.002919356761370187 -0.17579271008074956
38.5 -0.0651443942580541 -0.12148408322736107
39.0 -0.10297128082423301 -0.04214725684409808
39.5 -0.10204955243390476 0.04601973431531929
40.0 -0.06259911796728025 0.12450945838080182
40.5 0.006501355357384525 0.17734965776819483
41.0 0.09047121695137336 0.19489558934387904
41.5 0.17264087845279408 0.17528305887591164
42.0 0.23804256622859485 0.12366380111112811
42.5 0.27569549125934534 0.05025019479679696
43.0 0.2796490789927127 -0.03182811462294448
43.5 0.2493004986504323 -0.10840363793087716
44.0 0.18941494099281714 -0.16596544144452557
44.5 0.10989771615718262 -0.19347474042692286
45.0 0.024960248359607223 -0.184462464201329
45.5 -0.04885494486914918 -0.13909267937282144
46.0 -0.09600675092334747 -0.06529086028443609
46.5 -0.1059942443432883 0.022156194307639463
47.0 -0.07654143636451101 0.10492666499351572
47.5 -0.014332457936990381 0.16593257237029163
48.0 0.06710661600403091 0.19357082428455263
48.5 0.15125003512495644 0.1838573004680331
49.0 0.222402651447837 0.1401881827751712
49.5 0.2683650544680477 0.0715991395809593
50.0 0.28177187010091254 -0.00939395273962297
50.5 0.2605543951256759 -0.08875438957343648
51.0 0.20801912054286326 -0.15264107592053477
51.5 0.1327073102808118 -0.18916122076198721
52.0 0.047778045367417116 -0.1903950554272734
52.5 -0.030608961687663402 -0.15453122633885513
53.0 -0.0862721956074823 -0.08735941001293018
53.5 -0.10697176457498393 -0.0020088734141272165
54.0 -0.08799987023799663 0.08374741592251267
54.5 -0.03368860753018575 0.15203281909382
55.0 0.043982391089552805 0.18945024530331608
55.5 0.12892156623521434 0.18987739738952747
56.0 0.20490622070018 0.15482288036088704
56.5 0.2586167706095885 0.09198408410451853
57.0 0.28130631816840024 0.01311895706750767
57.5 0.2694470132282208 -0.06799107875031411
58.0 0.2248801429429619 -0.1373023076262358
58.5 0.15474369233554536 -0.18221865926998262
59.0 0.07103087961700943 -0.19353398834235302
59.5 -0.01070094949099093 -0.16758319251349477
60.0 -0.07393141004087915 -0.10801142574201254
60.5 -0.10496206383108475 -0.026092978374808715
61.0 -0.0967768064207747 0.06129320329506924
61.5 -0.05125418019953533 0.13583476821861756
62.0 0.021441562103630407 0.18255638508498098
62.5 0.10595612660054941 0.1932248433977269
63.0 0.1857681874635907 0.1673510885517724
63.5 0.24656185470108535 0.11113387461351804
64.0 0.27825553938052555 0.035422184054397114
64.5 0.27587361585458753 -0.046386365904539664
65.0 0.239789773362237 -0.12016990232524195
65.5 0.175711716505548 -0.1727730360908712
66.0 0.09437746802833796 -0.19386751534823465
66.5 0.010551693906759196 -0.1780757788020002
67.0 -0.05919285530441565 -0.12693342091592769
67.5 -0.0999991055253866 -0.049714336473056786
68.0 -0.10272017892077571 0.037912514105446146
68.5 -0.06674025471714791 0.11756638347460582
69.0 -0.00017290992305961372 0.172956972862358
69.5 0.08267210814645379 0.19381721536155766
70.0 0.1652305931706441 0.1775792153172399
70.5 0.23234195019545958 0.1287885993902463
71.0 0.2726535761562492 0.057228479064261525
71.5 0.27975982234713237 -0.024221291417055663
72.0 0.25256775932286546 -0.10148389459441699
72.5 0.19533722361070815 -0.16098197935818573
73.0 0.11748288477514325 -0.1914262248335617
73.5 0.03281586485431917 -0.1858811322333297
74.0 -0.042303900200042335 -0.1438455034749198
74.5 -0.09216943642637254 -0.07250005595159885
75.0 -0.10572700595878542 0.013973610421624715
75.5 -0.0798882704633103 0.09749569567601385
76.0 -0.02052431046291632 0.16076532863705537
76.5 0.05940141647339136 0.19161087595788356
77.0 0.14356042919601203 0.18534014120693867
77.5 0.21612819544947354 0.1447025409209543
78.0 0.2645649695187607 0.07825446870357211
78.5 0.28106152171341364 -0.0017823467040006934
79.0 0.26306259509075114 -0.08150005648633274
79.5 0.21336959161788677 -0.1470309404145448
80.0 0.14002356109643088 -0.1862802548862934
80.5 0.055749574638448075 -0.19091659434206895
81.0 -0.02354459608102971 -0.15850591309345438
81.5 -0.081609627812054 -0.09409388921012576
82.0 -0.1057458709002655 -0.010143167846285262
82.5 -0.09047603151720783 0.07592632722465471
83.0 -0.03928866899753025 0.146140004138201
83.5 0.03648471517888313 0.1866034204143423
84.0 0.12104709865705959 0.19049658159943325
84.5 0.1981202088772509 0.15864729240210362
85.0 0.25408440880395244 0.09822335677273134
85.5 0.2797648088384338 0.020641247321601823
86.0 0.27115205369597317 -0.060486676919249374
86.5 0.2295837165090375 -0.1311295186720212
87.0 0.1616915491740327 -0.1785361772724724
87.5 0.07900833187998871 -0.1931440274918276
88.0 -0.0032211074253063604 -0.17071441163148593
88.5 -0.06850259461479136 -0.11416333911299456
89.0 -0.10277815714579772 -0.03405340886651725
89.5 -0.09832308078734109 0.05319203679637101
90.0 -0.05616141203448455 0.12928346999494708
90.5 0.014266116774509535 0.17883564677443703
91.0 0.09799938596862873 0.19294442357804154
91.5 0.17854484438969803 0.17041502352785565
92.0 0.2413363572691399 0.11686769769310043
92.5 0.27588591698454296 0.04276014891471683
93.0 0.27674353321092254 -0.038721582699858315
93.5 0.24378150433820822 -0.11350794328781103
94.0 0.18219808357250233 -0.16833364580868698
94.5 0.10225099611245338 -0.19256832393533624
95.0 0.01834101739796426 -0.18031450577808722
95.5 -0.05307290655729034 -0.13240592284230113
96.0 -0.09687794262260932 -0.05737671036394412
96.5 -0.10329520457140154 0.029650358868155324
97.0 -0.07086397684519924 0.11043973007865186
97.5 -0.006912639323943634 0.16839286172876688
98.0 0.07474185305375221 0.19261590760883712
98.5 0.15765460309344015 0.17982186452699167
99.0 0.22647457328206047 0.13393228548845199
99.5 0.26947112960958575 0.06428746387726776
100.0 0.27977426500083236 -0.016489349099700464
100.5 0.2557929564927344 -0.09441372780853027
101.0 0.20127648523411684 -0.15584191327846278
101.5 0.12514502714639855 -0.1892352335513236
102.0 0.040803536686023975 -0.1871945356853707
102.5 -0.03558127056440963 -0.14855443389003456
103.0 -0.08815054056243637 -0.07974457703068338
103.5 -0.10530786169308477 0.0056754894799370265
104.0 -0.083150163011515 0.08989081103785124
104.5 -0.026718429505283275 0.15540535712690562
105.0 0.05161062041075083 0.18948251401720428
105.5 0.13572560591491595 0.1867113569623102
106.0 0.20968145120639275 0.14917718355022233
106.5 0.2605966507818594 0.08494133387284815
107.0 0.280211424420605 0.005921348472943227
107.5 0.2654769279008282 -0.0741085074969847
108.0 0.2186844667270667 -0.1412563132035407
108.5 0.1473710825763493 -0.183228658821596
109.0 0.06382198062781982 -0.19128770950004648
109.5 -0.01631840208662573 -0.16238109300842274
110.0 -0.07674974602243155 -0.10080787453503828
110.5 -0.10432837666464091 -0.018349372539125344
111.0 -0.09281198447704771 0.06795213916677462
111.5 -0.0448332710388301 0.14004791808310837
112.0 0.028948528789356893 0.18355740394463543
112.5 0.1130550469496869 0.1909578973380504
113.0 0.19116710484967953 0.16238090185654308
113.5 0.2493684042252755 0.10444759509962181
114.0 0.2780521730724643 0.02822029074212718
114.5 0.27272163221558354 -0.052865057270778934
115.0 0.234205908561756 -0.12479478645844852
115.5 0.16862694665862338 -0.17466756530729016
116.0 0.08705173141424179 -0.19257119943115897
116.5 0.004401480017783135 -0.1737005345456886
117.0 -0.06287391141342505 -0.12024360213086546
117.5 -0.1003767923020761 -0.04203997913027427
118.0 -0.09968478572263627 0.04496688002798933
118.5 -0.06096095099686534 0.12253825698110787
119.0 0.007099716406724299 0.17489725865868821
119.5 0.08995806427833825 0.19247007683293768
120.0 0.1711681144161713 0.17334370835025648
120.5 0.2359217198512587 0.1225425475318212
121.0 0.2733236482433998 0.050118228713490184
121.5 0.2774449592826316 -0.030964475506316154
122.0 0.24765218316322268 -0.10669451272415023
122.5 0.18863080282537525 -0.1637026462049611
123.0 0.11015359361812578 -0.19106443938451423
123.5 0.026247301402710033 -0.18237162981672858
124.0 -0.04676102649470107 -0.13776078363096023
124.5 -0.09352534064901083 -0.06501900908752249
125.0 -0.10365140278667083 0.02129937685515282
