! Created with skrf 2.1.0 (http://scikit-rf.org).
# GHz S RI R 50.0 
!freq ReS11 ImS11
!
1.0 0.25028398049839884 -0.1515862480480886
1.5 0.19056255226634689 -0.2071404062967778
2.0 0.11551180506261757 -0.24054004371219156
2.5 0.032965813010952486 -0.24760066309011494
3.0 -0.047993921560331484 -0.22682959637663183
3.5 -0.11798014399368002 -0.17990561395594454
4.0 -0.16849071075420946 -0.11179027272589019
4.5 -0.1931672442328499 -0.030317892208372645
5.0 -0.1888427181211545 0.05477084245672015
5.5 -0.1560953720191636 0.1332103818095722
6.0 -0.0991441539388164 0.19571191286559844
6.5 -0.025117590818597664 0.23524273563382808
7.0 0.05709097401899611 0.24782775947280086
7.5 0.13808739722008584 0.2327882348193814
8.0 0.2091037854924419 0.1924982871572998
8.5 0.26284534563804296 0.13183175300279398
9.0 0.29403396756641775 0.05747574657206586
9.5 0.2997045048786798 -0.02276796768832788
10.0 0.2793332734427206 -0.10064562542576479
10.5 0.2348567491405108 -0.1680881257974433
11.0 0.17059177673620943 -0.21785813337028118
11.5 0.09301766119789129 -0.24423320622297617
12.0 0.010345883935099269 -0.2437046521245489
12.5 -0.06819439400512656 -0.21560245977121975
13.0 -0.13337156856615073 -0.16248949304841953
13.5 -0.17717804167138687 -0.090142400455203
14.0 -0.19405542639950318 -0.006989914113061059
14.5 -0.18182906197628404 0.07698187254921188
15.0 -0.1420913145519892 0.15166954531925364
15.5 -0.07991832403311973 0.20831912093106295
16.0 -0.0030059435236233292 0.2406903474279362
16.5 0.07953008932113043 0.24570533719574697
17.0 0.15839680912975346 0.2235451914190301
17.5 0.22518042302078906 0.17730761156167746
18.0 0.27310770488872843 0.11240565773683944
18.5 0.29751532301543654 0.035872241592171714
19.0 0.29609395297553054 -0.04432850709982153
19.5 0.2689838804899365 -0.11995280276979334
20.0 0.21876871427398992 -0.18311191243035785
20.5 0.15036434722710318 -0.22692674178893485
21.0 0.070752036153552 -0.24621833786855396
21.5 -0.011521956556674345 -0.23819678432312838
22.0 -0.08714212900387214 -0.203039426250558
22.5 -0.14710683769510513 -0.14418956339288252
23.0 -0.18397582672074003 -0.06819947180481438
23.5 -0.19304253825441325 0.015981024839819995
24.0 -0.17313881783273666 0.09821365364069914
24.5 -0.1268415344286472 0.16864808017552005
25.0 -0.06001851912856934 0.21913210911391948
25.5 0.019150325523124567 0.24424831717239603
26.0 0.10140787651136089 0.24180981594579914
26.5 0.17762672311780814 0.21282451494229737
27.0 0.23978946962842707 0.16106706391814396
27.5 0.2816667752956835 0.09244059944478315
28.0 0.29921829613789847 0.014278165846009624
28.5 0.29079044494372314 -0.06533499426483211
29.0 0.25718227507514363 -0.1382042780527138
29.5 0.2016136672838601 -0.19666163426465755
30.0 0.12957909863411188 -0.23422900829634902
30.5 0.048526041758034086 -0.24631360869604968
31.0 -0.0327198330436551 -0.23087911634420785
31.5 -0.10483090677095655 -0.1889653443554053
32.0 -0.15911954966584388 -0.12487931414998078
32.5 -0.18878955074539697 -0.045894125970530456
33.0 -0.1900350608393996 0.03860712443935788
33.5 -0.16270012694709082 0.11843748639021474
34.0 -0.11030583510973006 0.18409486453101986
34.5 -0.039436840281718066 0.2280945414225929
35.0 0.041332154801495186 0.2458679002037999
35.5 0.1226861154827335 0.23610792464473435
36.0 0.1957277659069 0.20061248323533015
36.5 0.2528778628275186 0.14378417801399263
37.0 0.28847297271843536 0.07196556233429645
37.5 0.2991041179762418 -0.007257364431419841
38.0 0.2837735935513227 -0.08572166132112928
38.5 0.24393355624703553 -0.1553241135703543
39.0 0.18342733613205536 -0.2086611373257604
39.5 0.10830351607857813 -0.2397015237467147
40.0 0.026434047282973723 -0.24448249775320885
40.5 -0.053138338885129616 -0.22175413428379903
41.0 -0.12115406857549585 -0.17342789869739836
41.5 -0.16932602627022744 -0.10464873410197707
42.0 -0.19157595702512953 -0.02334594554682475
42.5 -0.18503973725089384 0.06075912395966932
43.0 -0.1505687866497673 0.13753630874583572
43.5 -0.09257853199953921 0.19792316554102074
44.0 -0.018289856471620472 0.23516060153617815
44.5 0.06341794089807593 0.24554652015360806
45.0 0.1432526892635972 0.22863624008776737
45.5 0.21260757775781475 0.18697725122339637
46.0 0.26437934350810044 0.12555014476643256
46.5 0.29348984730690675 0.05108659576904465
47.0 0.2971685224121711 -0.02862116458508328
47.5 0.2750729956261221 -0.10537618928721244
48.0 0.22930184615543545 -0.17121006912812609
48.5 0.16430677951835032 -0.21902916309290688
49.0 0.08666200232401645 -0.243296034348454
49.5 0.004616690834505104 -0.24072093079488371
50.0 -0.07263747815019969 -0.21086906783307607
50.5 -0.13599299929360198 -0.15652518912590463
51.0 -0.17764942016947682 -0.08363657957114082
51.5 -0.1923145992293412 -0.0007149749437679522
52.0 -0.17809697350306525 0.08228027241425435
52.5 -0.13683895881976363 0.15538045510477955
53.0 -0.07379125781360245 0.21004780077799634
53.5 0.0032739428555578973 0.2402975936058994
54.0 0.08526218811092055 0.24330287526906574
54.5 0.1629807557732541 0.2194573252193328
55.0 0.2281683381905339 0.17201461481231808
55.5 0.27423091442665426 0.1064828636564632
56.0 0.2966919860232717 0.029933325776525375
56.5 0.2934247651302776 -0.049681517460905954
57.0 0.26474057352782004 -0.1241744243233304
57.5 0.2133762359278938 -0.18575607133777997
58.0 0.14437398943908147 -0.22768935107212696
58.5 0.06480077087724306 -0.2449777406461832
59.0 -0.016769837440749655 -0.23504543536837513
59.5 -0.09107051996084094 -0.19829611702770553
60.0 -0.1492323920015331 -0.13838077945914928
60.5 -0.18402556794102493 -0.062003365172619083
61.0 -0.19100452155406028 0.02182413736020103
61.5 -0.1692696817271015 0.10300814423923488
62.0 -0.12162642243162408 0.1718432998829569
62.5 -0.05409336759084949 0.22039354924960464
63.0 0.025093863517658493 0.24348718149342385
63.5 0.10671307127413174 0.23917198354683536
64.0 0.1817425822834126 0.20865012647294168
64.5 0.24231603807928906 0.15583551927980507
65.0 0.2823773611204067 0.08671325847262859
65.5 0.298065080167719 0.008645544015228653
66.0 0.2878998581517817 -0.0703001504864825
66.5 0.2528437810229588 -0.14199007414903211
67.0 0.1962618511991819 -0.19885906619109742
67.5 0.1237657319961764 -0.23457392205877642
68.0 0.042877388419970366 -0.244725687638997
68.5 -0.037563608398534606 -0.2274903143794295
69.0 -0.10829221724633187 -0.18412673207404298
69.5 -0.16076598872083764 -0.11913572246804076
70.0 -0.18840559220592018 -0.03992211623630643
70.5 -0.18766347967942001 0.044091425405968186
71.0 -0.15863942000416462 0.12278270989812395
71.5 -0.10506243229374122 0.18680712197920019
72.0 -0.033644605587673564 0.22889829154900895
72.5 0.04700443058020902 0.24472579718279905
73.0 0.12761905810702262 0.23320324791038352
73.5 0.1994147811233517 0.19630629819432943
74.0 0.2549640418285287 0.1385612955205777
74.5 0.2887730841642774 0.06638002300607458
75.0 0.297606121513253 -0.012632040664124107
75.5 0.2806333058161311 -0.09033708763397907
76.0 0.2394630911018309 -0.15869885841679343
76.5 0.17807631983759892 -0.2104222158171571
77.0 0.10262924897689715 -0.2396256917361253
77.5 0.02105602739140538 -0.24253337948966952
78.0 -0.05760172372617919 -0.21810669587097734
78.5 -0.12416304857874924 -0.1684690696105322
79.0 -0.17049968431239598 -0.09894463948732177
79.5 -0.19075735275728312 -0.017573589189954823
80.0 -0.18232750576165382 0.06590649573665407
80.5 -0.1463042285527881 0.14145055074128035
81.0 -0.08729032890896177 0.20016605139340915
81.5 -0.01261115820438044 0.23551442886804552
82.0 0.06883926322199771 0.24402460203009382
82.5 0.14783225898648636 0.22545924517077642
83.0 0.2158808898964193 0.1825281809813446
83.5 0.26603481999870304 0.12032116382924089
84.0 0.2933830047119334 0.04562691495932003
84.5 0.29532353957574725 -0.0337525268309073
85.0 0.2716765313030964 -0.10965325156950397
85.5 0.2246907514047291 -0.1741808633640752
86.0 0.15894788617093655 -0.22035685996284063
86.5 0.08111978633015743 -0.2427994464065233
87.0 -0.0004954523213426057 -0.23840933415926355
87.5 -0.0767234013875747 -0.20696204356484396
88.0 -0.1385520385663675 -0.15144635452917765
88.5 -0.17835357337978358 -0.0779730615035522
89.0 -0.19106629684130294 0.004857002890846695
89.5 -0.17505039714484918 0.08709181974219851
90.0 -0.13237692732165057 0.15886757185512684
90.5 -0.06846307775649649 0.2118278021148189
91.0 0.008837046006027825 0.24020952465565268
91.5 0.09043358086130654 0.24140917319331656
92.0 0.1672104795617572 0.21601471986598875
92.5 0.23103287813960496 0.16742737302011512
93.0 0.275460925062393 0.10125059030477135
93.5 0.29618306430071456 0.02460102597810832
94.0 0.2912372702997895 -0.05456856851770385
94.5 0.26109252300067937 -0.12811218637839666
95.0 0.20862997886719836 -0.18832218007068996
95.5 0.13901410900544348 -0.22858395727037473
96.0 0.059398784231548415 -0.24406300029370814
96.5 -0.02160773179833038 -0.2323775115154766
97.0 -0.09477237603087066 -0.1941397234894805
97.5 -0.1513389287955954 -0.1331954823847034
98.0 -0.18426343105852225 -0.056395202324222425
98.5 -0.18933589901821613 0.02718265318208382
99.0 -0.16590302912809624 0.10747529169730217
99.5 -0.11698352007468213 0.1749009623020421
100.0 -0.048741184381600314 0.22171475802039348
100.5 0.030528466335398973 0.24296650575586565
101.0 0.11162605487810094 0.2369190038052147
101.5 0.18561864305757259 0.20495563686027451
102.0 0.24477212939756884 0.15112355504042765
102.5 0.2831855938467762 0.08149002288769971
103.0 0.29716051487450934 0.00345148804105395
103.5 0.2853787655577563 -0.07493368842285981
104.0 0.24895554349293572 -0.14558138798979836
104.5 0.1913943038621483 -0.201016214250051
105.0 0.11842076517401437 -0.235035264885192
105.5 0.037632311209651145 -0.2433980496557884
106.0 -0.04211197936933517 -0.22447759036861087
106.5 -0.11159897029900581 -0.1797384820118731
107.0 -0.16241597425101773 -0.1138656282623294
107.5 -0.18818180701458728 -0.034391874101055646
108.0 -0.18558777057940373 0.049216927103269595
108.5 -0.15497247386970567 0.12689236532905254
109.0 -0.10026159394708445 0.1894306875585427
109.5 -0.02829079272356505 0.22976464107289996
110.0 0.052291761718192754 0.24378357185978256
110.5 0.13226028466295137 0.23060686992446602
111.0 0.2029298517891081 0.19237824903757106
111.5 0.2570101266505038 0.13374344182108572
112.0 0.28916313978537606 0.06118381985766131
112.5 0.29631408518027036 -0.017671603107930724
113.0 0.2777909510100453 -0.09470337954411259
113.5 0.23535083738275056 -0.16193344410383947
114.0 0.1731069432443498 -0.21216482728897187
114.5 0.09732080128105543 -0.2396543600650403
115.0 0.01598957143008132 -0.24080086595734695
115.5 -0.0618416769229468 -0.21476507954410176
116.0 -0.12706197391571702 -0.1638717756836818
116.5 -0.1716894693465904 -0.09361677339489113
117.0 -0.19007880429559687 -0.012148439723448264
117.5 -0.17986147966874344 0.07077614745931028
118.0 -0.14236093427341553 0.14518789208505054
118.5 -0.08235868575286903 0.20235063727401034
119.0 -0.007281897672206529 0.23593087119533507
119.5 0.0739573880544567 0.2426738923456767
120.0 0.15218602199755557 0.22253810039427982
120.5 0.2190262132214895 0.1783881691801784
121.0 0.26766894982882644 0.11541980710416394
121.5 0.2933592139244878 0.040479286508712964
122.0 0.29365406551225426 -0.03861814878761188
122.5 0.2685281358910645 -0.11373609893610645
123.0 0.2203743067331366 -0.17704707622451984
123.5 0.1539001443829663 -0.22167937909596772
124.0 0.075873260706865 -0.2423975455272087
124.5 -0.005358589514972936 -0.23628284018678009
125.0 -0.08063439123304822 -0.20331125120371993
