! Created with skrf 2.1.0 (http://scikit-rf.org).
# GHz S RI R 50.0 
!freq ReS11 ImS11 ReS21 ImS21 ReS12 ImS12 ReS22 ImS22
1.0 0.24775433113058443 -0.35049882392976794 0.7434088693019448 -0.2094144621431668 0.7773104090107527 -0.30897286678620006 -0.20112792178150393 -0.2566842650540401
1.5 -0.05267389663397424 -0.16771310751875965 -0.752817496291733 0.3435900146351738 -0.7587033645726309 0.3394346100993929 -0.033424964068388324 -0.22677619707561433
2.0 0.1448575488352164 -0.07651621682958434 0.720904256785957 -0.36935783609187467 0.6876579414077223 -0.4351605090786403 -0.22488457831301464 0.04232333925687925
2.5 0.005338796158864466 -0.22549934038532812 -0.646065549856377 0.41941610205952706 -0.5818357004033207 0.43940290495095335 -0.3790910523998134 -0.05734493166442438
3.0 -0.094844439034945 0.05441339959873341 0.571430620585491 -0.5182926976778046 0.5753208940310257 -0.5236296907858347 -0.17034145045060997 -0.03943481845890756
3.5 0.18440198183686363 0.04654633754346606 -0.5033262086046495 0.5563327992083867 -0.4794664931352041 0.5477249108138531 -0.14500768547198162 0.2271058753598469
4.0 0.08746442461586627 -0.14030027408612514 0.4348438902395124 -0.5960052329331831 0.4421134916031614 -0.5521244088635832 -0.2494281650966907 0.1432579669130027
4.5 0.0454169286815592 0.011778351597341533 -0.3640911045867755 0.6419377824558238 -0.3646999217026123 0.6399209162472115 -0.018193765270298017 0.02601699057821194
5.0 0.20788037219557354 -0.09783473645009551 0.30451694056203077 -0.6295852301302197 0.311555434053119 -0.6229580000064479 0.06917736575127456 0.15685397606548437
5.5 0.005454926996370307 -0.23492541863881947 -0.22073230320712808 0.636845546086204 -0.2597075295662849 0.661585479169848 -0.06875711907901208 0.06834732493598375
6.0 -0.08219862836182855 -0.0558163381849545 0.13695876927534104 -0.676552736785658 0.15036502726393275 -0.6733473708023563 -0.0021200889279134947 -0.1385084891950192
6.5 0.012129347311717512 -0.09662473127841696 -0.10941974291960771 0.6746269360901223 -0.12139308706200273 0.674740493674283 0.0498617793510228 -0.06430936069041177
7.0 -0.1422861880169476 -0.10149171664435112 0.04952149635029178 -0.6474305514600883 0.036423383216706365 -0.6851698752075482 -0.1411417235248857 -0.05527463106061721
7.5 -0.12050712712315562 0.11352552501599056 0.04354022625276737 0.6407064393365551 0.033159910006562966 0.6544962508144424 -0.1815425475294959 -0.15868305154730405
8.0 0.013787285606734154 0.08816800761215965 -0.0941225416899304 -0.6482337459853205 -0.08339326566411058 -0.6666395127277868 -0.1294464777008343 -0.07515746251534165
8.5 -0.03629733841938193 0.07025108114135777 0.13201843935185384 0.6319648581450651 0.15192989605883428 0.6350302744470692 -0.22056804358001056 0.04078818614750357
9.0 0.04057003724809492 0.16251324777738524 -0.1972150810606042 -0.595936844950818 -0.19917074525448195 -0.60812267312062 -0.2378291465193148 0.009603609658977304
9.5 0.14621749110870333 0.07301821063478132 0.25916344842204087 0.5758472011615708 0.27081281316920186 0.5957603204727124 -0.13078356832375723 0.049271790355979825
10.0 0.08299052478214927 0.0016962785538261272 -0.3100682721103857 -0.5546406961378522 -0.3147832499576473 -0.5518358404618572 -0.10329021139745466 0.12763956839331195
10.5 0.06694272421560912 0.04140458572491018 0.36242341113967663 0.5149375919697613 0.36419442754229175 0.5208135101335516 -0.10358407741408453 0.08606260772570425
11.0 0.08931419052508713 0.004494013909560859 -0.4079789477320116 -0.4671086939717338 -0.42238535686964807 -0.46815019970869676 -0.02980823590826295 0.016524279697624645
11.5 0.015215244546289303 -0.01203177078851087 0.44795655382129745 0.42094938267636783 0.4494644071473834 0.4176752729731888 0.010687673710323984 0.010396545177238927
12.0 -0.006422658457185686 0.08231256738828034 -0.47887242262209445 -0.36147447964341906 -0.4847227322173646 -0.3738872954784286 -0.042077105400294176 -0.017034428365198084
12.5 0.07799640566445129 0.11372656824198173 0.5053642777312215 0.30017406271111435 0.5051312292523138 0.3045068687628977 -0.08993628128187013 -0.09775226981153097
13.0 0.0859021734014159 0.076909918586111 -0.5234329934082539 -0.2579103262093386 -0.5188954271400689 -0.26195876512137195 -0.08030903182238974 -0.11218416015363893
13.5 0.09161428677576015 0.12997894104692034 0.5284022003577206 0.2113899131593897 0.5378296554865699 0.2132034153973977 -0.13517545304564343 -0.04679144287438089
14.0 0.20714973515230284 0.10913047768622901 -0.522571575543652 -0.15276524990992144 -0.5324107031284411 -0.15428232373779757 -0.2234460652264307 -0.04460599050520009
14.5 0.20078792529238174 -0.015088238534837348 0.5387294338804136 0.10575366829334373 0.5444736445510312 0.12172052346619229 -0.18745999518672424 -0.05686022003757581
15.0 0.14154800278667037 0.01328754699673073 -0.5535393034080506 -0.07076341896002523 -0.5576038337267097 -0.06655708381074328 -0.14579751575708894 0.05863395993551795
15.5 0.21593932321974924 -0.00859388858764098 0.5378050773918944 0.0311562387227095 0.5404417108749426 0.028234915703521355 -0.20747997116807376 0.0934945114800712
16.0 0.13651951669700468 -0.1315833916842263 -0.5361202345754686 0.028058303274775487 -0.558679840645102 0.0255747839253321 -0.14286567538454978 0.01976365747956366
16.5 0.03223786842069947 -0.03364652537156793 0.5481070939100611 -0.08414544099707248 0.5449748247535608 -0.08383404447280716 -0.021922059004372694 0.07843543065640733
17.0 0.13388032579741474 -0.007074797165101498 -0.531234036770151 0.12680888143154562 -0.5339514814586543 0.11465954505814227 -0.09277202818784382 0.1091800209825867
17.5 0.06170166940180673 -0.09324816038231908 0.5123926139192938 -0.1768894380880523 0.5217103303672771 -0.19199344549430186 -0.0872372865565827 -0.04463080294550496
18.0 0.016566687812874088 0.05415020219661021 -0.4896791384076912 0.23468717072021958 -0.49262204386246927 0.2264532519505699 0.024349709233644323 -0.044057958685161575
18.5 0.18707505645950664 0.034167981897160284 0.44808137143775856 -0.2692181082109241 0.48197302422349253 -0.2697876045086338 -0.07863802120327548 0.025720876456929217
19.0 0.10757192531359076 -0.09640024816617318 -0.4167938080517257 0.31395211329135164 -0.4172511127978186 0.3189576209436884 -0.17270755224937206 -0.10141083083143647
19.5 0.07325306154261294 0.021969400406151512 0.3925689751717773 -0.34990835087920175 0.40337665101867415 -0.34394793218215436 -0.06899120269821386 -0.10687961950803526
20.0 0.20880604247423656 -0.05542254054227146 -0.3485115294594873 0.35125079576263424 -0.3572111581515035 0.3875686268869301 -0.1460930463041771 0.04519859816089773
20.5 0.05049973812990444 -0.17430702578944515 0.29870754573900954 -0.38177501436306505 0.30490653030476883 -0.3904958182514991 -0.25402600581843227 -0.022199670280590316
21.0 -0.0007717163140485877 -0.015832531047316818 -0.26750721817098316 0.42666369093242235 -0.2830542474732735 0.4325084464599295 -0.11965706714861699 -0.04474351570420588
21.5 0.11663197654364427 -0.08587145052111561 0.25333434818287953 -0.42243870211269746 0.22713965712236023 -0.44228483138986574 -0.10444430824226962 0.1269113763618532
22.0 -0.055488051050174646 -0.12891810819121058 -0.20488022442580495 0.42596674385420447 -0.20150864808412267 0.4399349845841188 -0.20722334982972584 0.07212470430593639
22.5 -0.043727124440629254 0.07834588400843637 0.1454530816030859 -0.46092438773712113 0.14744533684459976 -0.47825883071303477 -0.060825170851104594 -0.023612880223028685
23.0 0.09259454120528239 -0.007759260371203099 -0.125132911474377 0.4780955473413124 -0.11378369641715415 0.4623907193178501 0.002666190859639151 0.098738147849124
23.5 -0.04439502847287382 -0.0338019481071793 0.091079645424161 -0.47414257494480877 0.08167976547175765 -0.47975020047853456 -0.12803048619844218 0.053999337296054606
24.0 0.03949919600102963 0.1254348627063681 -0.02929400882512535 0.4768535207727029 -0.011651353648546792 0.47550682821450313 -0.0567703833484029 -0.10397269352596204
24.5 0.15345718730594865 -0.019785659868172257 -0.013683576743445922 -0.48271131144868584 4.1892439342082556e-05 -0.4741881994293924 0.012120690031731407 -0.008016286139519607
25.0 -0.004354486325949647 -0.050047026948682634 0.05722184343797305 0.47922433031119427 0.05587495727820006 0.4769297967634148 -0.14955752350373577 0.0017114849701037793
25.5 0.06339654811997487 0.0711891577268248 -0.10948014790348719 -0.4678114338080127 -0.09611098521021222 -0.45205809865499047 -0.15149843806873797 -0.1278032011237812
26.0 0.10852433385393502 -0.06850702603377636 0.1401683222895247 0.4503832727047987 0.12723299092162604 0.4649017063351705 -0.06811093983937469 -0.03964028539287323
26.5 -0.058555443453399914 -0.033321499775346264 -0.18005851071844123 -0.4226403684539803 -0.17457764494570693 -0.43180608783171626 -0.19353087392629714 0.04973273791382242
27.0 0.029967614844053053 0.09977806039718225 0.23028105071877378 0.39429416196622347 0.2031490131675857 0.4150876556320893 -0.20807670230753544 -0.04696178775452173
27.5 0.0679753683185986 -0.0061903490499117305 -0.2508047190978503 -0.38554916078017365 -0.25690697269165597 -0.4048244242905541 -0.08270510207744516 0.013190630696729037
28.0 -0.03649409213570988 0.05685902750377528 0.26882326421821456 0.35340031047323905 0.27622044578177185 0.36677243381404845 -0.13515241060237354 0.10970453681783697
28.5 0.09633842191534245 0.1422689961046716 -0.3002749895931809 -0.30998000516251184 -0.3137766343009079 -0.3462884676595367 -0.15543807653265573 0.015858751926220223
29.0 0.13454336589210147 0.02062302010789835 0.3310114118682835 0.2956347754799152 0.3527545634527062 0.3028637414756294 -0.02827344246998652 -0.0007919973948974778
29.5 0.05684612671909299 0.05683061553373665 -0.3478971529831268 -0.277980914351579 -0.3640804540631268 -0.2769290447519353 -0.051837541462310975 0.0679496081933145
30.0 0.15825043400706987 0.07943843952110706 0.36147879267298466 0.23464707514458394 0.3950579475874483 0.23277800395423914 -0.11388956444365123 -0.01962611173917881
30.5 0.14845395594484234 -0.041466167129971795 -0.3881708489258243 -0.20372862589752963 -0.40280257163569627 -0.18886768083123173 -0.05165971222510013 -0.07433188367868365
31.0 0.06095896399136894 -0.006269449540589464 0.41344520967033044 0.17408041892494178 0.41522117519164625 0.1606922718738641 -0.06774495302449206 -0.013542140334043586
31.5 0.1153000469554565 0.02289984378280546 -0.42079799888564245 -0.13017521102092508 -0.41902696361592007 -0.11242439110901123 -0.15632652204900616 -0.037510074515202316
32.0 0.09162002276989095 -0.03906186769194473 0.43481839772866393 0.09176122511783444 0.41939886604356597 0.08062084303290365 -0.14007926534593848 -0.07212410993479376
32.5 0.03795621543871518 0.0172054724424707 -0.4376863396946126 -0.04517109213262091 -0.43028093645738597 -0.04643597116780609 -0.12930699405170895 -0.007014681474836283
33.0 0.10360473085231735 0.05486671486683576 0.43223032522227395 0.00038405803920370257 0.42092494528836316 0.0093751939653243 -0.17532032949659998 0.0250605927010155
33.5 0.1220605506520675 0.004041485287963109 -0.4254479449446895 0.04122372559628554 -0.4235123882935272 0.02335681713158181 -0.1648976824738932 0.00744042697153694
34.0 0.0974654217870885 0.01666434026875382 0.4178903044192872 -0.07523610333735167 0.4212528908727507 -0.06148526066309736 -0.11395447404963494 0.03487389202022749
34.5 0.14465494964873457 0.02456121132353199 -0.4016571294337178 0.10776618099647219 -0.41024662161124026 0.09501082431687115 -0.10710390427615948 0.06563692466492661
35.0 0.15416610545044915 -0.04219887208157611 0.3811840103820336 -0.13794812000034093 0.4044214964449783 -0.13092030439197053 -0.10842267325279524 0.03893084057066977
35.5 0.09804208582525377 -0.06030159488251918 -0.3681013525919602 0.17124702490105637 -0.3892541378575872 0.17295731041679163 -0.0699384967160407 0.0014559443788140659
36.0 0.09862196375412174 -0.03306357223440552 0.35432055564403747 -0.19819018017735807 0.37158172693969715 -0.20257569378227025 -0.04905593036606297 0.009029532936816334
36.5 0.10504479074808906 -0.07452355003989262 -0.3364752217385374 0.2196871897011559 -0.3523445566364901 0.2385660305959099 -0.09078732833928116 -0.0009245601198931145
37.0 0.02747959203743147 -0.07356765180311957 0.31253084527256403 -0.2518985578169981 0.31815889106904055 -0.2717103094745137 -0.10751994155071763 -0.05674942833302803
37.5 0.03487708713602943 0.002954784458013887 -0.29150260283665985 0.2854247880830362 -0.29523664195283456 0.2954190111703735 -0.08331744221081892 -0.04811150313253655
38.0 0.07950895876793145 -0.02736292867713836 0.2690523005526021 -0.3064459611377084 0.264047509067575 -0.3243119260661391 -0.13417412924995473 0.0021121763560470255
38.5 0.018662552101281423 -0.028842551167431927 -0.23776948181143612 0.33045355887100314 -0.22428688318456383 0.336135093591958 -0.1800026315676597 -0.03254321306947491
39.0 0.060003311226618304 0.0491331920100717 0.19952331213322722 -0.3528440023552612 0.20042689355217957 -0.35971776303780106 -0.11847328080215976 -0.026060339582701986
39.5 0.12534404561736892 -0.025942690502264543 -0.16693860116907427 0.36784155179687855 -0.1569570529573978 0.3674091376752148 -0.12658119693781358 0.06245321241784074
40.0 0.03639999392120191 -0.05196570995115216 0.12745491154731806 -0.37640128754073315 0.1295558115382469 -0.36984360591470167 -0.1755492304494398 0.03399194763944148
40.5 0.06769095573711963 0.022890387885950114 -0.08869586028601523 0.38430304609206 -0.08955941633311865 0.38808623895883665 -0.08848514762664707 -0.005819499605561566
41.0 0.10520519229697015 -0.06736354816918147 0.0621131158654694 -0.3804635704474776 0.060106146602351036 -0.3774149420633516 -0.05479223723246105 0.07231596627869798
41.5 -0.02058231951774384 -0.060135127996945724 -0.020615831886349974 0.3763247331583535 -0.030958190334235882 0.38402520223856124 -0.1284782142315393 0.039792718637793274
42.0 0.029110833624203466 0.04824597962105737 -0.01893051198090619 -0.3789450766909432 -0.015189619871806687 -0.38139179542380647 -0.07047370319964297 -0.05657624920036082
42.5 0.06654925212324371 -0.038635021420767544 0.03421169813290799 0.37803291727013444 0.030732219286539096 0.3767160895264395 -0.023503494033649878 0.011684553700413292
43.0 -0.04336499394865057 0.004652005017403772 -0.06234355703536234 -0.3599143341993702 -0.06951853051187437 -0.3751596288813922 -0.13519930662977386 0.008041266447761028
43.5 0.06106064864111082 0.10557117091684713 0.10649016943132095 0.349741102552388 0.10192153434967599 0.3528196044096143 -0.12327869005324288 -0.09468052484176559
44.0 0.10332528321644484 -0.008791660517636952 -0.1301613594590243 -0.3525175681530752 -0.12472279929314092 -0.3591305448486729 -0.0594892713624244 -0.02568258219624713
44.5 0.00291765257015238 0.035858430225872956 0.15012786938100922 0.34306902290634883 0.16285027277032582 0.3375363202806595 -0.17113643162709852 0.0318481169845967
45.0 0.12010292219531657 0.09107007290450321 -0.18401220491464554 -0.3144778992075056 -0.1803266058150727 -0.3183202384152899 -0.17977872875324982 -0.05992145246134338
45.5 0.1236327876831662 -0.04906522532123554 0.21334836547688107 0.30121244303276345 0.22236279786752813 0.3140116925827281 -0.07853789450519186 -0.0014518137099107588
46.0 0.00982265512814279 0.010361628511887145 -0.2425370198888281 -0.2855399734310676 -0.23660306291187017 -0.28072146703786544 -0.1479023320940568 0.0862799907351331
46.5 0.11737177277151982 0.056756609686292384 0.2668047617939739 0.2545210258700373 0.2639558485332315 0.26579157703850026 -0.1675398620915477 -0.00831374926000243
47.0 0.08293104236418118 -0.06157061224015784 -0.28570590266573126 -0.23181705260676375 -0.29626014419991753 -0.2320606873837103 -0.04259726608439676 -0.0016349180583022005
47.5 -0.010017917156313911 0.041380907252638745 0.3016496906149775 0.19805566874778124 0.30016456989221574 0.20995696682900714 -0.08480431364697667 0.08373412706524233
48.0 0.12149144219680415 0.07841154738001765 -0.3180779721766136 -0.1615219828333634 -0.32576558159984487 -0.17551267901742518 -0.1387714553035392 -0.01475962052144612
48.5 0.08884159369595683 -0.02760798840430639 0.3298554293669769 0.14027604269130856 0.332519115118723 0.13756800136478 -0.04042142961517021 -0.055688047623909824
49.0 0.03571291636687761 0.06967519283864602 -0.3290556323394696 -0.11401433441894912 -0.3427633418485633 -0.1212933067000283 -0.06777830529209451 0.03153155735353051
49.5 0.16765002091865877 0.06037224059459753 0.3251695960514731 0.07644610214608755 0.3469464809859578 0.07416473855566931 -0.16215249742254756 -0.03236410491598026
50.0 0.11565180313548885 -0.048972040905280456 -0.3407771707982268 -0.05107548502001874 -0.34487558357452575 -0.05136165522253401 -0.09684357286632846 -0.08027016518089543
50.5 0.07332799906227788 0.03416995478940403 0.3474673659143481 0.03184483743234808 0.35270155588275603 0.022524725468452887 -0.0983431385126212 0.016720646227966502
51.0 0.1664980016303985 0.0009581010229989503 -0.3367410680926251 -0.00529531143896944 -0.33797163760127996 0.009068331666319113 -0.1888671717970507 0.006179756294795664
51.5 0.08521691983215424 -0.08214803451819959 0.3410517661165757 -0.030338546056026084 0.3439343602461229 -0.031491827279243004 -0.13848682338755014 -0.042235817930210785
52.0 0.04847742083317013 0.009900382865683394 -0.3449888801374926 0.05880862545487159 -0.3399757267448614 0.06578283825516473 -0.09564999156220083 0.042732609634497466
52.5 0.12232834901017563 -0.012093589079007129 0.33638729635570513 -0.08561157396498682 0.32529550483682773 -0.0834489963551138 -0.15987502720770239 0.0555581887624131
53.0 0.05191549468953105 -0.05322371289467156 -0.3264492925104807 0.11934138161780186 -0.3255331075900581 0.11730973992666105 -0.11850604233037268 -0.007890704572833772
53.5 0.04965081765092196 0.0349711286793927 0.3125437675170276 -0.15244957709059143 0.3100511750633401 -0.1453042611068191 -0.05747094955054842 0.02938579365434511
54.0 0.1241603921987536 0.005110625893000764 -0.2912772357174707 0.1779851470718406 -0.3007811827564752 0.16835597984576017 -0.10315097288749472 0.04303604047987781
54.5 0.07930173707463738 -0.036847328985770214 0.27253691840310607 -0.2055140364239694 0.28321046205728917 -0.2018108359511632 -0.10224149789077962 -0.025252467511484637
55.0 0.07869807507561143 0.01261986602782996 -0.2530120002775312 0.22667725146066575 -0.26187745832240783 0.22314729703450786 -0.06353193164980757 -0.023964798436370935
55.5 0.1234240514046659 -0.026420959323139953 0.22840721232712713 -0.24250321524514382 0.24434946172220723 -0.24676355017939586 -0.10038604176496055 0.0004616667794665014
56.0 0.0723554441581158 -0.06421602286469939 -0.200415142267411 0.2587190941473335 -0.21379463255308642 0.26898849537883557 -0.13296827481429294 -0.03355308822746901
56.5 0.05062155164674804 -0.021799418086798653 0.1796271305275307 -0.27418164983293003 0.18897769911130363 -0.2840204873106337 -0.1147110889014266 -0.036656858927709784
57.0 0.07598053233152675 -0.03261726860537632 -0.15691159451013714 0.28302598398141227 -0.15955913668006447 0.2985745765713699 -0.12442799113181409 0.0019962714197061205
57.5 0.03705277071775945 -0.04751865571666091 0.13346097536654192 -0.2919945195845792 0.12937825190021304 -0.3078844213404257 -0.1511820596651601 0.010420715472223863
58.0 0.019097321221381004 0.0015858313801007495 -0.1068677767547441 0.3040236146172848 -0.10297145179082474 0.3175688397240485 -0.13766367687596617 0.002004839415447897
58.5 0.054665636246467975 0.014642349422215054 0.08224977062231999 -0.3151834113914082 0.0705979620689119 -0.324216657211451 -0.10809350216305372 0.02250881342122551
59.0 0.051379520167323306 -0.00854325963945788 -0.05605011022201061 0.32087317198778503 -0.04516122958812677 0.3206491537846892 -0.1098136194802561 0.042950102348662686
59.5 0.03692735602573274 0.02288963435570519 0.026140918703537654 -0.324909980019794 0.016251246140051512 -0.3254079708391532 -0.113351435243263 0.01758746871770579
60.0 0.0875859884495136 0.030355373449087203 0.006070398048424454 0.32462979911973844 0.01472740887414994 0.32056261912500084 -0.07721976899471997 -0.0044218463629801035
60.5 0.08367702150021279 -0.024796068232382187 -0.03628500351652803 -0.32391613556423354 -0.03579106495797394 -0.31583609620899544 -0.07118255859612167 0.01856165601933984
61.0 0.03976765877453053 0.0006091382892893161 0.06894458449044259 0.31630478963101155 0.06464825120919106 0.3117957936580492 -0.10851564039408647 -0.004580969735701421
61.5 0.08397184566167401 0.01773104702600556 -0.09802484920008193 -0.30865859095958104 -0.0908387306683376 -0.29917384621464505 -0.09652375936527012 -0.050660480308920675
62.0 0.062470041828279164 -0.03897907202036873 0.12140602102016852 0.2930344915788812 0.11085237561645396 0.2966298840214341 -0.07898198025722715 -0.013787980253876475
62.5 0.007262325279596652 0.015889493468746584 -0.14552894657643017 -0.27357715990166936 -0.13987073577131623 -0.28246787045475164 -0.1429125103188639 0.00022723196955649533
63.0 0.076309492511649 0.048327273752756805 0.1715711001098734 0.255397469953583 0.15920712450096625 0.2664974060560272 -0.14385481581020432 -0.04778318064335091
63.5 0.06205995429929726 -0.013047885303376984 -0.1864316311759884 -0.24513926099527306 -0.18683349504987432 -0.2582183516061173 -0.0976431112407531 -0.004245656195383055
64.0 0.022641667685042898 0.053375781540322666 0.19822161702313232 0.223574886786306 0.20380280989002889 0.23298859571935177 -0.1499244102955389 0.045139856861328015
64.5 0.1205483771365169 0.06425804369988602 -0.21599592882682467 -0.1998343777779376 -0.2234743313650978 -0.21952619132632997 -0.15414239589827472 -0.013233777031872953
65.0 0.09577786965574607 -0.021383906330584946 0.23840127432023156 0.18860974521441834 0.25061592263479954 0.19565586623805606 -0.07259795748192624 0.0066190597739326056
65.5 0.055131369152445306 0.046656222356133314 -0.24851811601861543 -0.17322781203401566 -0.2559069294051274 -0.17233705050403839 -0.10656511563828058 0.0654450697339525
66.0 0.14818452385190095 0.030764942196537096 0.25715280069264507 0.14537812061664152 0.2767877462895208 0.14746710317251852 -0.1362965153428746 -0.008003422060692773
66.5 0.08937592586593764 -0.05939520374378149 -0.2752498233774612 -0.12349215665406917 -0.285496260131623 -0.11503168552720738 -0.052585982168665106 -0.028409717123806112
67.0 0.04113393104652915 0.030179372637164092 0.28926883131151987 0.09975289557967985 0.2922118121684575 0.09733267508093325 -0.07804769600889405 0.039782571036532
67.5 0.1307535043678293 0.012707968722145746 -0.29325717532008183 -0.0707138556141927 -0.29550161811630965 -0.06103283297523752 -0.1470430059959421 -0.024736489337505444
68.0 0.05726257840183517 -0.05268377587924785 0.2973322953078915 0.04329991610834838 0.292999873730168 0.03788951692105687 -0.08058335350918845 -0.06425395923682597
68.5 0.03877760562509292 0.05522676235707699 -0.3002575371264294 -0.014546055563138522 -0.3008295049533614 -0.01482625532429081 -0.09126068900855835 0.02155429081219307
69.0 0.14449695474389765 0.020659562906484446 0.28963078956137867 -0.015443210495915563 0.28760067707281 -0.014447505541052204 -0.17856236251358176 -0.006328331629702806
69.5 0.06663608447748857 -0.039658535657578466 -0.29217996152288006 0.04036252740946315 -0.28668180849400055 0.03185247432813449 -0.1201134016730587 -0.05531941036831888
70.0 0.07286447289825591 0.055898505989366895 0.28103095778893816 -0.05942139550146615 0.28527943952227236 -0.06078892972636899 -0.09578662692564037 0.0390363431387389
70.5 0.16096839065284074 -0.012051280681782949 -0.26524623558205146 0.0798686064577236 -0.2703522842484692 0.07491404209560573 -0.1730429316063999 0.03679982873221853
71.0 0.065385351177758 -0.06393382632222198 0.2616835052439238 -0.10670109853038556 0.27110401440394133 -0.10079813850117535 -0.12133927915912386 -0.028697624994814642
71.5 0.07685949215278635 0.02743555795093105 -0.2568875129998234 0.12329447476520769 -0.25769378550499494 0.12458450023886807 -0.06181787892705182 0.039252920004539234
72.0 0.13369992655167529 -0.043733181190163055 0.24020150421216346 -0.13396809624676526 0.24895965913345344 -0.13719483647027603 -0.13347436756430348 0.05106004356082933
72.5 0.028798066385902193 -0.06280786483775296 -0.22574697557160084 0.16071369161128704 -0.2347858525405295 0.1685656819278906 -0.10918644179762885 -0.035009564763676414
73.0 0.05606280610692288 0.031746592638347185 0.21630060400009912 -0.18454563962103246 0.22176860869586318 -0.1845570084158746 -0.04574289378213722 0.0011815115798776885
73.5 0.10363911026933292 -0.03361127498228585 -0.2042501060612412 0.19865075557298364 -0.20805410086534878 0.2044693667438151 -0.11415897849167465 0.028168828100975228
74.0 0.019699670721557743 -0.028684324357574377 0.1838667146602264 -0.21644589220538402 0.1794920871813145 -0.22299774400303202 -0.13052710278784813 -0.04901577740690209
74.5 0.07032478680791339 0.04730965460257752 -0.1611586780386621 0.23574985795236517 -0.1666194719159075 0.23875433431130114 -0.07374648017462616 -0.029328929429757615
75.0 0.11170801302876185 -0.02638706253340425 0.13922606802502532 -0.24654464116459762 0.14130956612204182 -0.25204145081504997 -0.12546045910153117 0.021904407976244426
75.5 0.04034759213832072 -0.02383429650635472 -0.1137901656077031 0.2612316865338464 -0.11365729949097259 0.2581764180539241 -0.15895765518423827 -0.02550274615456935
76.0 0.08161387195475961 0.02378814675571056 0.089062886975494 -0.268083320510194 0.09295764625165119 -0.2727328413083737 -0.10382805130165862 -0.017865536534810156
76.5 0.09809049389581123 -0.04427844049895783 -0.06600188807206991 0.26829949725637803 -0.06315829579000594 0.2728880530329279 -0.11744667407827308 0.04071569469446507
77.0 0.028505384188162217 -0.031022735165914108 0.03765830322193058 -0.2695315857409657 0.04212080146739269 -0.27477529830368497 -0.14502642101972435 0.012029070449288703
77.5 0.05894712781196166 0.01629426385919509 -0.015144621721153884 0.2736630367559148 -0.015309247226274669 0.2787572847286236 -0.09615185591344114 -0.0026105628525751787
78.0 0.06598180643282445 -0.026294465447213488 -0.0026789788246806613 -0.27071531920069336 -0.0069539596368733 -0.2732769486096601 -0.08675019389629329 0.03465582554228809
78.5 0.020479339305505037 -0.0006969482552495557 0.025286835513414145 0.2650861806907909 0.028758531941138032 0.27094633313753186 -0.1126377889695079 0.015779909272089415
79.0 0.05704663375883967 0.039824359849231224 -0.05037627006605335 -0.26226709597889347 -0.05444061743779418 -0.2656464721935392 -0.09009691639446929 -0.018041485530055766
79.5 0.07585646054646937 0.007028744215482187 0.06911382580230599 0.25810103300645076 0.07389162993536265 0.2596371939686713 -0.08007529689698141 -0.004129151586108251
80.0 0.052032321499117226 0.015661033255774996 -0.08939293583988933 -0.2548742233107756 -0.09457939235957379 -0.25428344294967503 -0.10703422003806953 -0.004940959527424543
80.5 0.07827844337272324 0.03744526254518163 0.11378749123645691 0.24585520280571513 0.11689704454779938 0.24297696173250746 -0.11747008019412829 -0.028059681888607052
81.0 0.09729606544637426 0.00354788575305098 -0.1354674229760729 -0.23433154968753714 -0.13322422989160898 -0.23289549045265184 -0.10894243056325248 -0.02357373310666733
81.5 0.06587369304207935 -0.007261386177806112 0.15718732815107 0.2234086039660449 0.15502527667978316 0.22201797851493393 -0.12134532637164763 -0.0012127991243000233
82.0 0.07065793398658561 0.018673477109821146 -0.17723265331878318 -0.20612251367331383 -0.1731372191508533 -0.20607227840686448 -0.14038182884827669 -0.00029776918425007687
82.5 0.08819557135970224 -0.0009559620419085396 0.19499566741558022 0.18616747410882759 0.18945588743545286 0.19123434172481082 -0.12880232930439042 -0.008061712489436745
83.0 0.05362627575666919 -0.01039893732859484 -0.21086908980939395 -0.1669862672827692 -0.20791833266333845 -0.1723932962930984 -0.10969500501652586 0.016798435959016277
83.5 0.05625219846951379 0.036080165196365546 0.22180377321301292 0.14313510817038191 0.21962611418143024 0.15419395451138762 -0.12120852116033012 0.030444919048071027
84.0 0.09578763522299516 0.0200387189481228 -0.22952425477964974 -0.11935275831941293 -0.23461002111054635 -0.1317018629312301 -0.11801406292716192 0.0003661893873686783
84.5 0.06584921682215511 -0.0006162788765165381 0.23684528043383216 0.10068460978719344 0.24674953265928287 0.10824674560413403 -0.07830154477328934 0.0029153850439292573
85.0 0.07503269619759909 0.04691198804511243 -0.2400001336523426 -0.08168135919888174 -0.2524070961560032 -0.0887745998639176 -0.09685160139926234 0.026468281806659347
85.5 0.12699729604474522 0.01200673760883972 0.24232894134376334 0.059181645034475774 0.2593019419735422 0.058673895918934994 -0.12027385203629369 -0.01654744157290145
86.0 0.0802020878430928 -0.0243267441974442 -0.25014134697142915 -0.03943829200696873 -0.25792737862094306 -0.03640141730144605 -0.08120310179688592 -0.03237914625183986
86.5 0.08329776779492408 0.02830554408796327 0.25098278015854636 0.023797549434530604 0.2615690335710474 0.015210412753541241 -0.09783599360264285 0.011839523618374039
87.0 0.12972469573830933 -0.01745859870804506 -0.24997849425654256 -0.002586831902648497 -0.25382597164278436 0.010208293547301425 -0.14714127426364326 -0.016062828519454907
87.5 0.05803150816792075 -0.04522945882900088 0.25182370675727184 -0.02118495035502643 0.25151746516128787 -0.027698684070526045 -0.1097989575617864 -0.04208305572165078
88.0 0.06583373061616125 0.02772026806937449 -0.2537521032331015 0.04426082656659551 -0.24865301717278332 0.05150227757198682 -0.10308729447756491 0.02252268417074113
88.5 0.11234764593906857 -0.020224117194372383 0.24588023613303417 -0.06409828663626634 0.23534886606581976 -0.06666033526780843 -0.16274427722864798 0.014545050875999523
89.0 0.037709176209403034 -0.030496126562419897 -0.23950073647515663 0.08789866880196041 -0.23491768955290857 0.08619625042289013 -0.11834920639919735 -0.026337990085205747
89.5 0.07235175101848579 0.04748228603995509 0.22839507542078544 -0.11165023790445654 0.22323346301824984 -0.10720954596001216 -0.08305745760497525 0.03555795451494477
90.0 0.12459875253787007 -0.020473317536982515 -0.21348905988418787 0.12971704933360834 -0.21536095638800642 0.11787890680891557 -0.1415671631430975 0.039542460632216614
90.5 0.044767557317673005 -0.02765413033983133 0.19999147909421147 -0.1495328767514106 0.20475284982674588 -0.14272206718535704 -0.111241677962487 -0.027125752508370914
91.0 0.09164623887261504 0.037565315030202905 -0.18692133145391904 0.16218635967365852 -0.1899356820850221 0.15624526392973417 -0.05485363646786125 0.014865859805614738
91.5 0.122069705249311 -0.046739891789727955 0.16624405708582524 -0.17093844674262657 0.18165936962976886 -0.17215824694695556 -0.11997973588370453 0.03305994064670529
92.0 0.02943479446344786 -0.0376615542735515 -0.14897865770923302 0.1877069007203858 -0.15964634570836697 0.19033020271985468 -0.11991141071027525 -0.044286622460730715
92.5 0.08233583975340772 0.025978627690768252 0.13661673797248944 -0.198433331409423 0.14649904185131046 -0.19982178185489455 -0.06184421574576924 -0.016413945089568963
93.0 0.09424922148787777 -0.05514214447974476 -0.12328761362048186 0.20051873843572265 -0.1277617533454459 0.21578563656345937 -0.12585511192831553 0.02604737870721895
93.5 0.00708497444330687 -0.0183856540951341 0.10181955546138621 -0.2133050100050653 0.10285487182716167 -0.22181620289598653 -0.15075252332313144 -0.03969068865010315
94.0 0.07547810246177349 0.03990415708013148 -0.08444017636357459 0.22528931546235648 -0.08703293075008169 0.23480341630217255 -0.08736308967991044 -0.023028139041824144
94.5 0.08340399427747205 -0.03871525031348254 0.07087413863640869 -0.22937238661680442 0.06184643445667239 -0.23714210083856158 -0.12477195495503438 0.04212072575845057
95.0 0.015241441123927685 0.008251481341138095 -0.04925998529158693 0.23531580889565 -0.042566865410092185 0.2373689591608382 -0.15820811845605787 -0.008609696725703902
95.5 0.09583895993459372 0.04350646316688855 0.025183745361446557 -0.2370387735146504 0.018356221938202806 -0.24515812270410547 -0.08912995867722993 -0.013242626609950799
96.0 0.08788976478605692 -0.037925780547572195 -0.0046631141946159825 0.24204077196013601 0.0007908247581837339 0.23764409695399324 -0.09881470058023635 0.05017005264119671
96.5 0.03134686381130116 0.007824513231158615 -0.018906999979083124 -0.24277267954554851 -0.01936801985303012 -0.23782048346712178 -0.1394144997123912 0.007763730185201361
97.0 0.09804654587414458 0.023486745331938442 0.041929396819767324 0.2369674912768183 0.04380101118730248 0.2321087115659043 -0.08139713331714143 -0.02322606726520678
97.5 0.07233775199365727 -0.04510540519652726 -0.05963025809806622 -0.2293327466289457 -0.05683670844469692 -0.22602471795588716 -0.0779222424557919 0.028097820914812346
98.0 0.02269499358785957 0.012001060224555854 0.0814455501023365 0.21765125184583514 0.07788917783427284 0.22199065860586156 -0.12920524993665394 8.967173355768307e-06
98.5 0.08603435667387647 0.025951282029364735 -0.10100533482252959 -0.21045793932363432 -0.09579119507140507 -0.21011482024515749 -0.09690668770112919 -0.04100061213830895
99.0 0.06287259377051292 -0.023666571637250167 0.11235517851862593 0.20160155962780263 0.10829053440299478 0.20496187921104297 -0.0867647773652004 0.001694877307931235
99.5 0.0350762496362131 0.033238510353551694 -0.12706896165437048 -0.18686096225831728 -0.12818705145834994 -0.19249310778486872 -0.13790264693014423 0.0005266885402613673
100.0 0.09527834425254986 0.034579582167728176 0.14404709485271916 0.17572428508174318 0.1431783441289258 0.18383943934803568 -0.12384454465468568 -0.03234532959326802
100.5 0.07508962056888717 -0.007386546546493029 -0.15694635601000614 -0.16563462500778398 -0.15854774397882715 -0.1720083764492527 -0.1031812606298596 0.0016169919982479421
101.0 0.0628111379660611 0.029714901774277328 0.1674443807105648 0.15302142636107774 0.17323772037800358 0.1573092116196545 -0.1349939523897719 0.020028986988207712
101.5 0.1089049193426484 0.01996134671654797 -0.17974326210009697 -0.13554023315896307 -0.18591898717482974 -0.14263534969090907 -0.1306777047364201 -0.005678203436301708
102.0 0.08662092672134213 -0.018954295908546644 0.1948910351933447 0.1230069826846237 0.19993877612652475 0.1234739347346686 -0.10053259993443275 0.00788935434716174
102.5 0.06522353257525874 0.0086975508135076 -0.20482104168171192 -0.10556281403870336 -0.20871800028688592 -0.1046704674371608 -0.10929003520064871 0.02538422196247063
103.0 0.09294895627362368 0.007315621667431403 0.21528523644732123 0.08674206872430003 0.21914444363908137 0.08566257981319392 -0.11466088050341457 0.00449260396910055
103.5 0.07613043520859668 -0.016110801705385584 -0.22288775248328743 -0.06486100493766883 -0.22542709498458627 -0.063247689644081 -0.09375278132953699 -0.006403395542061371
104.0 0.05829075442326315 0.009468666389863588 0.22337157001338487 0.04194097883595808 0.22665925633090597 0.04299524846931712 -0.09332533063969484 0.002848784380330892
104.5 0.08699767561877134 0.020752610010728523 -0.2264178766212616 -0.02020320234382233 -0.23076645724295397 -0.0220640176035839 -0.10859697946098697 -0.0035833659685228954
105.0 0.09071018562163329 -0.004124964794728904 0.22382250701770873 8.558074235577568e-05 0.22964765922447836 -4.164881863786774e-05 -0.11286278680184916 -0.020257762132801053
105.5 0.0690499900298401 0.006924491000525481 -0.222386665130512 0.019199091333608812 -0.22479759047702133 0.01817960041254552 -0.10536352927038135 -0.015081224907328642
106.0 0.09827686062433326 0.018143060117649216 0.21619401793392828 -0.036172730294570285 0.2202731641973939 -0.038135312450851264 -0.1192467257830179 0.0029988383811020347
106.5 0.10308527234294992 -0.0193842697563074 -0.20804704067396473 0.05334923647066387 -0.21314679464257108 0.054665015917440316 -0.13792586674813279 -0.00665193026616932
107.0 0.06730943277165236 -0.015152222124445294 0.20388248807424494 -0.07012004667878341 0.20868867630427726 -0.07210756173133956 -0.11462056454662888 -0.010374762296512137
107.5 0.09197159159920391 0.005706557556511017 -0.20068140915327334 0.0840377236903147 -0.2000637269772677 0.08910279939570316 -0.10992175099218673 0.022245349933139112
108.0 0.0947921111325189 -0.03590653948833801 0.18975320044173016 -0.09826954242979553 0.19113544261882914 -0.10229020497156704 -0.13298523226669656 0.0169420140142748
108.5 0.04545325568759646 -0.02007741101088062 -0.1829938360111141 0.11739338572740986 -0.18379878920863119 0.12000283361573834 -0.10804175167612322 -0.008542143981974542
109.0 0.07763874988998273 0.016221148603518875 0.17320229018604652 -0.13309110928048315 0.17090246839914663 -0.13316813420654713 -0.08470798095131582 0.020753898587649568
109.5 0.08516143859757341 -0.029431615895856373 -0.16113107331508092 0.14611269692532958 -0.16226168918123407 0.14594096206142906 -0.1197928238979676 0.021628326039320387
110.0 0.036617170992860264 -0.0037632753246496964 0.14704237906898696 -0.16279270708591945 0.1458221637320919 -0.1618633808024288 -0.10893618574420108 -0.025647619635845633
110.5 0.09038439315303363 0.030012185074374392 -0.12976270272077306 0.17498064824384424 -0.13331258958003966 0.17165035816475266 -0.07429334905246923 -0.0029287865435474437
111.0 0.09353665102959395 -0.03269792969635908 0.11136289759811581 -0.18325449690873585 0.1185569541442101 -0.1853968425406543 -0.11956727966586514 0.015707604547662766
111.5 0.041169746255754466 -0.004312461525591914 -0.09347445905294012 0.1947493275727879 -0.09745807118208841 0.19272886228224073 -0.1296992467269631 -0.03482489525349305
112.0 0.0975520049056675 0.019837910404186393 0.07572388643447385 -0.19953618631086711 0.08429471627151335 -0.20297865386140015 -0.08563587300764873 -0.016687495357440137
112.5 0.083513996735043 -0.04896302917769461 -0.05857122997059129 0.20057770721725482 -0.06169869379677838 0.20947853012250983 -0.12631256705341132 0.026850449539146413
113.0 0.026067110060308707 -0.00274890373160956 0.0371382400686091 -0.20327622004853763 0.043957898498114926 -0.2090770684410099 -0.14999241746771327 -0.018410165083455353
113.5 0.0891455057413417 0.019942007418443604 -0.022363239813431832 0.20698256459673997 -0.023639429599014005 0.21688553676573172 -0.0913368276805842 -0.01249070155608872
114.0 0.06524001426311254 -0.044109781509672256 0.010743567936462499 -0.20406794764123543 0.004927673772603142 -0.21057967954018153 -0.11208706691575071 0.04354533993250421
114.5 0.019263059571411858 0.02034257188746858 0.009218757438016433 0.1993440078875984 0.011998183952384906 0.21053369343717826 -0.14464100433799795 0.0007913102185623375
115.0 0.09623697655350097 0.03201670194525839 -0.026737098699174133 -0.20120973609252915 -0.03325548598047533 -0.20633460225748557 -0.08086381537581833 -0.017023831794133703
115.5 0.06563637288980409 -0.03072396286985606 0.03846207726774158 0.20129005708893097 0.045150978684252996 0.2012808888628742 -0.08601473908170068 0.03743945849984612
116.0 0.03722356060642442 0.036167939346054896 -0.05615559379130525 -0.1963856137385143 -0.06317746569115945 -0.195134226921896 -0.1359255777284224 0.0013496476579528311
116.5 0.11461068790749802 0.024809644123539247 0.07573784903399494 0.19132635084513927 0.07986702241544522 0.1855465179851183 -0.08527654936867557 -0.035997570125032005
117.0 0.0691061727927004 -0.036481513340065046 -0.09204422331920377 -0.18667265854899426 -0.09046885318018265 -0.1824884752008547 -0.07967584914755858 0.017114264844288636
117.5 0.0449049763510659 0.029514883871582746 0.10899586674490563 0.1770567117077147 0.10715004848529379 0.17033752907529956 -0.14177066938436084 -0.00020109145986976619
118.0 0.11122929545990427 0.008409928001515795 -0.12450798578684572 -0.1634317489058624 -0.11814869669717812 -0.1607843817030246 -0.11098162558929019 -0.043962779264131766
118.5 0.05307924604259302 -0.034797050205687845 0.13731173927106186 0.1515672068027316 0.13310265144256764 0.1548494580734577 -0.09062878463412191 0.00889056645210658
119.0 0.045607711937846455 0.03812268271000378 -0.1510183954225678 -0.13650289006814048 -0.14595301929719362 -0.14119586127633293 -0.14667442650700108 0.016019910115266777
119.5 0.10601636789303823 0.01143552746613981 0.1596926080712025 0.1192793041276185 0.15477869409354858 0.129568261978161 -0.12800417843805303 -0.02861435794675484
120.0 0.05501887892595548 -0.01839016518184756 -0.1670531251857706 -0.10797765176635563 -0.17183263994097664 -0.11713597213896867 -0.08925368694091841 0.012473857501815013
120.5 0.06179896644298915 0.04527529456087078 0.1717673886793966 0.09189036494765271 0.1764222784786053 0.10072227237087214 -0.13106813084144375 0.032567976452249715
121.0 0.11572300578633145 0.00842539147673982 -0.1796844422722994 -0.07518690428521128 -0.18751374184120861 -0.08444981465657088 -0.12274932353866277 -0.01447075290360495
121.5 0.0661970682286389 -0.016018700160538628 0.18482404000432565 0.06404001619523426 0.1944293410766884 0.06530487376153825 -0.07859907570726082 0.0037303884933762473
122.0 0.07888276846870178 0.03176011909422157 -0.18841834186026715 -0.05004930912927602 -0.19779039727148434 -0.05045624855466164 -0.10734896237905714 0.02598096944635605
122.5 0.11529547651890831 -0.009232377232088425 0.19126079275480887 0.03395852783619015 0.20208156286046378 0.029425771768934742 -0.12006020845508773 -0.016405276790767954
123.0 0.06552267441902586 -0.02488460687322995 -0.19577568948064825 -0.017159731833146376 -0.20156102299353015 -0.01130423634137132 -0.08654762539079482 -0.01651069156418961
123.5 0.07558979901782055 0.01725872904718263 0.19849324778607214 0.0013924231230045161 0.20195041239554956 -0.005679993234519881 -0.10721746233867535 0.010031132674832747
124.0 0.09699941167151747 -0.01310190947275722 -0.19930960443276086 0.01661123560768081 -0.19801194757892404 0.025932645210856194 -0.1302380201489764 -0.014015889790745296
124.5 0.0585567645903505 -0.016736314110948555 0.19767556108663026 -0.03632852406340511 0.19462511946457958 -0.03969517212461286 -0.10642737856310995 -0.019507875726522243
125.0 0.07112864133720684 0.01954998069175688 -0.1916796893899495 0.05471676732664288 -0.18859150203931724 0.056495085259562164 -0.111870503456147 0.008570198598666237
