! Created with skrf 2.1.0 (http://scikit-rf.org).
# GHz S RI R 50.0 
!freq ReS11 ImS11 ReS21 ImS21 ReS12 ImS12 ReS22 ImS22
1.0 0.2853892301905423 -0.3257837751655077 0.7597725541342392 -0.15565982290318806 0.806663139428872 -0.2474319990061833 -0.16744339084195553 -0.2649976735961677
1.5 -0.006068271002493872 -0.1703881214788994 -0.7980597463417258 0.25205789214462343 -0.7967011318706716 0.24801260929199045 0.018866459936633457 -0.2164594309856845
2.0 0.19161849869159922 -0.06828309065492123 0.7678081058794475 -0.2450847629375437 0.7528651464203389 -0.32530272892333456 -0.21905213604416832 0.011497117382075544
2.5 0.06347421010458534 -0.2497023807102861 -0.7094389270467748 0.2824240590191522 -0.6550654394557162 0.32821892527249724 -0.35548369257657075 -0.1420533669002485
3.0 -0.09861225256916895 0.015391745874948211 0.6837237652789129 -0.37132957853709825 0.6880785963836523 -0.37147630185046154 -0.14873782022042836 -0.08776922158320667
3.5 0.18668798343305223 0.06973634118172482 -0.637114846236967 0.3990913577353489 -0.6054064851606361 0.39786328874433374 -0.2330202520219857 0.18641441260641808
4.0 0.1164592999479408 -0.13006473475301314 0.6034709404445181 -0.4363512617391741 0.5810434324100466 -0.3885680364124487 -0.33190466296964316 0.05178766099486877
4.5 0.048838201397382555 0.0540107600700819 -0.5740057027338851 0.47380817798793845 -0.5702602027984607 0.472659081734758 -0.062456090204016254 0.047619201566374315
5.0 0.2932004812486664 -0.009042786655505078 0.5106153141627052 -0.456279818420684 0.5160389283703716 -0.4438420490051052 -0.06603934615931517 0.2518513888595187
5.5 0.14441400014991537 -0.24167856572988236 -0.4577046038848186 0.49167783046454083 -0.5171886664678886 0.4754426493893737 -0.17023430164693107 0.09756689387872428
6.0 0.0348840276493561 -0.08265808415962667 0.44743597949950753 -0.5406228802597831 0.4524831424276686 -0.5323681388598756 0.062201595487256324 -0.030829051060969847
6.5 0.20335404431992127 -0.13909627558165746 -0.4326003082259465 0.5031199241182019 -0.44946038004538674 0.5117468819256182 0.06213369110362949 0.1316120333768242
7.0 -0.003650134392429172 -0.2789377335494004 0.3669736649626554 -0.5082083342837136 0.4054767592294973 -0.5659559794965437 -0.11475114942156915 -0.02522811956141693
7.5 -0.10908816669823704 -0.048482016574334805 -0.3299024803621526 0.5693232034844823 -0.3421003489405963 0.5666707986239715 0.01034327621949563 -0.17807355985452478
8.0 0.06063082827789512 -0.08375702420943734 0.34306260981850606 -0.5692014554235288 0.3497356889456814 -0.5865382510705053 0.004779538170838634 -0.011974803715683085
8.5 -0.0984699589808794 -0.15143308379748227 -0.303896899225907 0.5521793891227346 -0.26935812384953606 0.5991652975446352 -0.2206644051490228 -0.07127475131199343
9.0 -0.09928531408830503 0.09645766613253337 0.23471902571487147 -0.5880004233268008 0.24686530733661358 -0.5936683354098501 -0.1390723516208361 -0.18221650631952907
9.5 0.10006273292604678 0.02898053478008858 -0.22040818233052245 0.6076658241167308 -0.21856705306078852 0.6285447722284939 -0.11122801064056313 0.010722146425654406
10.0 -0.020560047397524185 -0.060952010653985804 0.19709679897565413 -0.606140006096125 0.16197212198833386 -0.5943371957350118 -0.28459528006292184 0.03252361134323207
10.5 0.022109857043459014 0.10416694839608298 -0.14278692928968162 0.6123387982064249 -0.14462260342079017 0.6119911645682136 -0.19766037183316298 -0.0646320584127295
11.0 0.17638928079970873 -0.03145692389719138 0.10944381250572137 -0.6047869553513029 0.09471852457065856 -0.6175453727846135 -0.09124854676986228 0.11203907325374286
11.5 0.007163122036608445 -0.128611027313177 -0.06848125234956517 0.603649170642166 -0.08039322221695193 0.5862730943684623 -0.2132414470580594 0.13666107622581816
12.0 0.0040896030496774816 0.014865614385080236 0.02068972109912738 -0.6127471498169342 0.03508902314084581 -0.6172435663822389 -0.11526942308496707 0.006168506089203716
12.5 0.09030199099664765 -0.09335125213248494 -0.014494297921097025 0.5956517804513773 0.0013277966969814973 0.5912421368888318 0.02140681982023503 0.10098925030429355
13.0 -0.09214838874373406 -0.11608661371129876 -0.02208909747818237 -0.5701697508160247 -0.005477002417075622 -0.5886298830823606 -0.09229837304662629 0.11491490145264974
13.5 -0.07125262350239206 0.07159973542414513 0.0772715083917935 0.5685328884280564 0.06853933435608384 0.5851824992652477 -0.04943837225568876 -0.06110694927648132
14.0 0.021694165104559234 -0.006366934046477734 -0.07924075531026128 -0.5768704976917783 -0.07657050630690514 -0.5636159495232105 0.0546330088710294 -0.015607410531965913
14.5 -0.1038604848360942 0.003967472487090304 0.08790121383483641 0.5516558663064558 0.10028435066471207 0.573196627658096 -0.07928992322792171 0.010398181184832185
15.0 -0.016181469388571765 0.16441479521968994 -0.1391015047599545 -0.5276383153899435 -0.14532911870237833 -0.5392464260125178 -0.11507584387862572 -0.1354855914678237
15.5 0.09225731546251104 0.06452689419277735 0.16446887894264878 0.5402738529719701 0.14966916954563692 0.5438972374414156 -0.03410867772800596 -0.09210190440990682
16.0 -0.004083147322417335 0.051418457497724085 -0.17135005757498478 -0.5335927466543563 -0.18826210488085499 -0.5318526000974009 -0.1617559816051023 -0.011299244943527948
16.5 0.0841408023400092 0.13703509929394295 0.20391823780998636 0.506204310793174 0.20662575247385367 0.5031246153724345 -0.2120632744003466 -0.09763160431787274
17.0 0.1536944246280384 0.004539270548987078 -0.23631069150868006 -0.49765427433931464 -0.23022364115452862 -0.5137214636996875 -0.12059051163352778 -0.045313760385848896
17.5 0.02954992167305382 -0.01808399502608183 0.2601333789693632 0.49086551952831725 0.2615904984400735 0.48275077956128787 -0.18679452949846317 0.06795242652730116
18.0 0.06989491818105059 0.059461169374039974 -0.2902267750488281 -0.4662872091886214 -0.2738951305420139 -0.46769168567151076 -0.2159093225066745 0.005189691070949418
18.5 0.09023836083567387 -0.037081043271916574 0.30989997154766774 0.44723411479964476 0.3152488500500331 0.4613405650855862 -0.09649788932510994 0.029115610832720757
19.0 -0.03497151094000153 -0.006649105583915435 -0.32932151428857037 -0.4215314085618909 -0.32203723050317107 -0.4291881457162297 -0.11190548919130724 0.1189342984566841
19.5 0.021939143630763578 0.10153918596882067 0.35463248880815285 0.3869025208753267 0.347562684919053 0.41711670329444805 -0.1360162799280522 0.0447434366788512
20.0 0.06093866255046084 0.038841451215203715 -0.371098846702699 -0.3732863112973205 -0.3780934045837451 -0.3831745163690588 -0.025892518773291205 0.008357793181401599
20.5 -0.007602308756131375 0.07686454752927249 0.36860484984113234 0.35291693246057804 0.37990357617384946 0.36688857403023156 -0.032301296896256104 0.06422355957375984
21.0 0.08270813673379897 0.14642780799116317 -0.379033578527601 -0.3166472845004113 -0.4070702379188392 -0.33784102894353096 -0.08860846494769208 -0.01584394969087956
21.5 0.1379908108892568 0.06604516017874638 0.3986655013318579 0.3021443699936026 0.4130468633455088 0.30433620577042625 -0.03553757229143127 -0.07722828054492378
22.0 0.08575703685079615 0.0696034539791164 -0.40406896617834875 -0.29611648529952445 -0.4208236968049323 -0.2923128332504555 -0.05229461659046681 -0.024797159956965905
22.5 0.1515433596033778 0.09654335802265938 0.4079981124399429 0.2689510930984933 0.43220661813095274 0.2562464615395375 -0.13932389580951066 -0.059509766630427105
23.0 0.17300512847770821 -0.0004834784287738466 -0.4247340917967693 -0.24599706923162587 -0.42895916010672397 -0.2371424147213757 -0.12088630292921713 -0.0982174576424785
23.5 0.09931662075830898 -0.008013491356634206 0.44335820747999316 0.23370958276373124 0.44531450451015375 0.22267149651204662 -0.12624157486709575 -0.029804010193333806
24.0 0.1215545972649901 0.024069125503879876 -0.4501023476939575 -0.210179478816933 -0.4398471711896143 -0.19142168875994514 -0.19612416546231984 -0.012307740863100897
24.5 0.11697548034113904 -0.03439142517298016 0.4589091917691597 0.1813540673588801 0.4495058015708845 0.17948466168492305 -0.17693992551566054 -0.033987020972753273
25.0 0.04120022546105086 -0.00863110766012241 -0.47093541891938595 -0.15305102927242734 -0.4618582729324094 -0.1575523980045975 -0.14093030695359696 0.033120694553319265
25.5 0.07408016299001552 0.05292376811444884 0.4735314242567111 0.12073011056606171 0.46157002254814883 0.13767954335163687 -0.17098242178414255 0.06261200718954237
26.0 0.10074936667274631 0.022846250629092527 -0.47537478489589646 -0.09329604858526531 -0.47381872025387756 -0.11655421657579554 -0.1400394731756703 0.029888976279732082
26.5 0.06951534292773054 0.04274719500636009 0.4727064236401158 0.0678199223089101 0.4800438072460571 0.08603751834117854 -0.07860599385468457 0.053599021099960405
27.0 0.12197778862795815 0.08056568802064469 -0.46203212733044613 -0.041950729432323274 -0.4791306411571627 -0.06803168767019376 -0.09004702955464966 0.06732212214163429
27.5 0.1633439829414159 0.02510999142325687 0.45763324467813726 0.016666329362438198 0.4874620931951393 0.0352238537980101 -0.08501494948719279 0.0120378803269029
28.0 0.13159922836593788 0.0067539934045878994 -0.4583366884757408 -0.000726366991741881 -0.483937537981313 -0.0060956913167568945 -0.0388374154858699 -0.006142570635911258
28.5 0.15639338440779263 0.022746447002111866 0.4506608953710276 -0.012683223227064963 0.4797938292049592 -0.015931118997734296 -0.05889063243002445 0.004774647469066662
29.0 0.17236830041960852 -0.03942291826013202 -0.4410823439494055 0.03250436636101784 -0.47314914806665187 0.05223218309197431 -0.09830285471302642 -0.04332985854028687
29.5 0.11190249559064538 -0.06300913658878253 0.4460623797162637 -0.05557332445365911 0.45997582572446755 -0.07143922561309463 -0.08231691295586985 -0.06617138277092505
30.0 0.10905452948584844 -0.028589133836366614 -0.4465274466097221 0.07023417331388719 -0.4543711786933684 0.09320400162822148 -0.10675675667487348 -0.03086687154258671
30.5 0.11653565477379492 -0.060233844243797456 0.4392798219066533 -0.09011680492141677 0.4365542206535239 -0.11767365116460901 -0.1633401984017821 -0.03846851151050987
31.0 0.052914310811296966 -0.059682856412930606 -0.43697065734879065 0.1185011475338859 -0.42761207832491654 0.1320887763587219 -0.14907837350334885 -0.05099544066903315
31.5 0.05901555219336957 0.007909521809300027 0.4320304532537394 -0.14385085944750836 0.41930294563361764 -0.1538443813521844 -0.14190222620013032 0.007690841792460266
32.0 0.10079056984307685 -0.010720742458023862 -0.41863501742126175 0.1664494824465605 -0.4012692862867545 0.16460685795075328 -0.18074310673913954 0.027804522884750743
32.5 0.06448614787810374 -0.016235124015585797 0.405729040760964 -0.19177985663457478 0.39838186213995 -0.1820126978288701 -0.15507381488555752 0.005867008325184971
33.0 0.09521839100067876 0.03657530390332648 -0.3905255440388779 0.21127107706802276 -0.3870611395762024 0.19985703208870043 -0.10760874431440627 0.05345940384739795
33.5 0.1503423287914757 -0.013192665707528905 0.3677883720034933 -0.22552340629092807 0.37506316409419593 -0.2069436559965416 -0.1342640153652914 0.07305893656478177
34.0 0.09982697883333319 -0.051444202007564194 -0.35458957341906605 0.24519710605710232 -0.3691436984659319 0.23216118351350026 -0.10747300880431382 0.0189370155919194
34.5 0.1091057644497232 -0.010677221735827188 0.3412416903998936 -0.2534357734930754 0.3522080668021232 -0.24715428178531312 -0.0453518442017016 0.033030114165415576
35.0 0.14408829570103965 -0.06742809265957928 -0.3243336851036296 0.25654655735933735 -0.34595129856386825 0.25890399391466934 -0.08194267378848774 0.048498722683675166
35.5 0.06043015052199759 -0.09702466411364087 0.30579741188967446 -0.27424711054654194 0.3272970431899612 -0.2863116353670245 -0.08982662987965245 -0.028795568518338914
36.0 0.0554834840694025 -0.031548149093017834 -0.29783516031780216 0.29035387617002767 -0.3131671168734019 0.29794407015281077 -0.03895806786202468 -0.03155541168212788
36.5 0.09074200139342092 -0.07033636319571067 0.28984847015642273 -0.29125816655140785 0.29973193735170267 -0.31401513599395103 -0.09341274079293034 0.002132440086525001
37.0 0.006261802849671335 -0.07397046608976571 -0.2704330915500396 0.30522798661485856 -0.270761856222467 0.32855408210390213 -0.13598806427644322 -0.06007464413108871
37.5 0.021377710928070538 0.018104034230901626 0.2549363369210025 -0.3279050991024636 0.25904123589791966 -0.3390486942826167 -0.08853854774510517 -0.0585654929685241
38.0 0.08389966836126685 -0.02268915703792589 -0.24362978483992628 0.33668477771188704 -0.23750354557530523 0.35265572692464153 -0.13643367976503123 0.011451874213280509
38.5 0.01683043710403039 -0.030043643794184706 0.22447171524729104 -0.3493406124730836 0.20968285971297274 -0.35263975185793356 -0.18759598805498728 -0.02777249109038378
39.0 0.059466664379177 0.05049545108597227 -0.19900906370177998 0.360644186983177 -0.19847345798713803 0.3679326892286104 -0.12011972509463577 -0.026280951820830473
39.5 0.12493891429680333 -0.023946452106093516 0.17984409938909224 -0.36671700097529547 0.17102371957691512 -0.36916238851065886 -0.1333296064249608 0.06274459690800481
40.0 0.04267472414230565 -0.05033198163579171 -0.1557918043474624 0.37550198092315235 -0.1564486294310286 0.3657640878202407 -0.17846360064625513 0.026890417867419483
40.5 0.07319942720664424 0.01666701036053193 0.1348336754594535 -0.3819233365756696 0.13447385907533052 -0.3814632921342662 -0.09138554627153163 0.002876299264950331
41.0 0.11419549147138172 -0.06711711443430503 -0.11927779563444599 0.37483182096771334 -0.11751487237058394 0.3736735905067832 -0.07895842834917005 0.08191865298146193
41.5 0.0029328613881257123 -0.07278824851568247 0.09261246327570827 -0.3763782317257732 0.1055910348547934 -0.3796987330244084 -0.1332637065213208 0.035821238441977876
42.0 0.032237333036249295 0.016705889015986665 -0.07278368866992652 0.38188798114619366 -0.07628406674754139 0.3845856954727801 -0.05588765707868143 -0.026163553307864195
42.5 0.06983738900895463 -0.05737510726008919 0.06906647720969343 -0.3788897822437215 0.07138195404774585 -0.3793613697454637 -0.039223135126746536 0.04510497066924705
43.0 -0.034015551156835626 -0.0352636079823162 -0.04961728443419315 0.3726794924269431 -0.05134320375199583 0.3895172459455438 -0.12083893892973147 0.0007356275361795299
43.5 0.024567360623101327 0.06716463536564288 0.023229100179607207 -0.378717386418995 0.02651200519024569 -0.3812900635700352 -0.07230206140106782 -0.07812071455061662
44.0 0.07588936324144163 -0.014011637842440777 -0.017594840729224157 0.38532301156162374 -0.021100741397095894 0.3867558137269301 -0.053393413093097315 -0.001098856326454511
44.5 -0.012663212040114382 0.006621384596007888 0.004330494795638123 -0.3774423481001793 -0.008377997028560015 -0.38656482505864176 -0.16038605672476058 -0.01434414719132829
45.0 0.06986154724522356 0.0883295779992615 0.024790105119836238 0.3761270380502152 0.02403483035450056 0.37871654100244745 -0.12424877500411942 -0.0858551075264019
45.5 0.11315508570862934 -0.019748558587743784 -0.0404684948584724 -0.3792427473390502 -0.04019819591655691 -0.38990563788723026 -0.08928275055876363 0.0037057918186122205
46.0 0.013549928852198963 -0.005842676500360905 0.05916583400496991 0.37899779775954745 0.06196188200959047 0.37252140976569253 -0.18997458512158535 0.02425802951213021
46.5 0.089133748716161 0.05630048341483202 -0.08353457716402837 -0.3687087803833165 -0.07717192950486078 -0.37420169330795017 -0.1521180908344749 -0.0494963607448131
47.0 0.10393331962798683 -0.05810648364145086 0.09845996808103057 0.3634676196498857 0.10442810915725464 0.371887700703322 -0.08213635297243363 0.037769226303698195
47.5 -0.014265467839159865 -0.020388687902560782 -0.11868531832210416 -0.34955853573990325 -0.11175262188886595 -0.3546056093966562 -0.16633421903641232 0.06813446441477866
48.0 0.06442697893935863 0.05725297415705543 0.14084148847269212 0.33917294999023617 0.13590015392443938 0.3534808413726659 -0.13025321020441316 -0.022195246024101622
48.5 0.06954842562932166 -0.04502574866065144 -0.14538917814264543 -0.33619818788004247 -0.1529865875907255 -0.33628419053569825 -0.03869499569215928 0.03732903442247204
49.0 -0.032846461168620104 0.02021902190675062 0.15592529012181702 0.3163698706945958 0.15874859109755957 0.33113165245846954 -0.11970599591380718 0.06910045634976403
49.5 0.07412547580222187 0.09464673717311131 -0.17935796858913605 -0.29996201017782403 -0.18722536989705546 -0.31565887398011844 -0.10818821501283823 -0.04405575729169414
50.0 0.08262024955916454 -0.011932070709088248 0.18602316734250177 0.30608211298822774 0.19032038769127899 0.3007076690934554 -0.01876096288723757 -0.007108192229488125
50.5 -0.001256382564246108 0.05225020932830309 -0.18699301196925983 -0.2949967157292669 -0.20123525945750464 -0.2980721600161273 -0.1096897089275369 0.036972572231129465
51.0 0.12111722979734202 0.09713169115364047 0.20444985048654774 0.2722954364391241 0.21799877377273608 0.2714762278464659 -0.13088586784197162 -0.07406624225189329
51.5 0.11725275711304707 -0.027079130656649596 -0.2244216578077976 -0.27566885794341595 -0.2195698251040247 -0.27237801080264196 -0.04547239898534117 -0.045474486146303054
52.0 0.02913682575222809 0.03553142868456159 0.2302347841404263 0.2714572642907394 0.23830749098337933 0.2628414613983068 -0.13230092150039033 0.02509484226397862
52.5 0.1380805210115146 0.059642429141222864 -0.2409910218951995 -0.25014554072446793 -0.24041646401725805 -0.23929034802315338 -0.17455498697548993 -0.06551287610209042
53.0 0.10419065606999237 -0.06311432622796999 0.2573613532739295 0.23958548947250083 0.25436316344557447 0.24354385234347553 -0.08196207843151355 -0.03863718915023291
53.5 0.009576116973279486 0.020433379878684318 -0.2735543350039654 -0.2258532688501181 -0.26573609572789153 -0.22379177771085582 -0.14866213133179465 0.056830359915216996
54.0 0.11567081456204435 0.04969399104116998 0.282961596355855 0.20543974567899195 0.2676012930160039 0.21460433989451294 -0.18964400687867022 -0.02341326334089579
54.5 0.07276262515354207 -0.052177388772656444 -0.28978991939060506 -0.19353466193972543 -0.2918071705221901 -0.20307586782921905 -0.08207702681709576 -0.011218736484350303
55.0 0.00031925477695469366 0.05333945795937994 0.2919559199828759 0.17433917782916977 0.29087859578364555 0.18536388250551344 -0.11665656879718528 0.08403820370082395
55.5 0.12716449987360023 0.07349919850089211 -0.29738198736957394 -0.14783022992898798 -0.3020035243992586 -0.1759041237145972 -0.1653687076244183 0.003763647992069889
56.0 0.08747377588125974 -0.027326886599171013 0.30781362921583494 0.14332327309587933 0.31842200787997466 0.1506044469721168 -0.05063751425841978 -0.01584504429202599
56.5 0.036312583351672936 0.07133204527488596 -0.3010510519985709 -0.1331749086421376 -0.3121052630512875 -0.1410373058477698 -0.075824035851597 0.07298975523939062
57.0 0.16365148602129528 0.05985012593438675 0.29950876525961284 0.11084280150058068 0.32643898195396615 0.12000313080118713 -0.14244272619620937 -0.009778273804814764
57.5 0.11034549625560999 -0.04815516669677928 -0.31358833171923833 -0.09938238001190443 -0.3240905398382467 -0.0972146080673121 -0.0477094011017803 -0.05388319191656465
58.0 0.06073262427134613 0.04608299828628143 0.3170813233460366 0.09588859727752924 0.32752403361731 0.09074053111168832 -0.06743245996974706 0.03551825080906028
58.5 0.16853226632955248 0.019882324553715823 -0.30952579301073896 -0.07842186733184876 -0.3279971712588729 -0.06152192677423814 -0.15976700254403842 -0.028659257551486506
59.0 0.0885840211274018 -0.0764668851062877 0.3181986126356748 0.06076124946142936 0.3211914800841827 0.05117616318033478 -0.0821713103073563 -0.07711331768343897
59.5 0.041504841566838015 0.028643766113542364 -0.32961105078540454 -0.04854975993929157 -0.3300120832912172 -0.03937388671799384 -0.09294103239655044 0.023157537279894422
60.0 0.1415059398594477 0.005905290560689438 0.32565668979991774 0.033126494268745275 0.3168658972203346 0.018341801133749797 -0.1900494810636216 -0.012171902568578382
60.5 0.0567307684830076 -0.0637111897960283 -0.3289405363780911 -0.014727360818721828 -0.3192316262799475 -0.0130936042995909 -0.11686251990492702 -0.06041083347290748
61.0 0.03376468753338445 0.05311621409113146 0.33093101958533117 -0.006095297265550954 0.32417368024990617 -0.006019887827560956 -0.10060098622823802 0.0444392521030814
61.5 0.14324425554862977 0.023084457855471023 -0.3184348797584248 0.027399254226529342 -0.31049081817530094 0.01533590801730597 -0.18865841269516387 0.02756403482515486
62.0 0.06750495777578477 -0.04055814035366136 0.3234539484731589 -0.04288142024417455 0.32301239362726236 -0.028843066581073815 -0.1169161973472204 -0.03191031408575216
62.5 0.06606911001878082 0.061754879129893865 -0.31445164780609386 0.05127678064585701 -0.31265059476097323 0.044577540165405674 -0.07638864910141463 0.06082255195875879
63.0 0.16696625195945192 0.006177142920615879 0.2974097862398541 -0.06637493798010746 0.3134346503308235 -0.050240745920723105 -0.15479740389105937 0.04689909897955842
63.5 0.08291888961877854 -0.06100536312991138 -0.29957332677205734 0.08418143676368275 -0.3154632404880217 0.07823950300851447 -0.09518911310306102 -0.032049262161084266
64.0 0.080801699926749 0.03340429904550806 0.2991481613780215 -0.0886395442757698 0.30544253821546496 -0.08572381556348056 -0.04602989674621966 0.038469904268072716
64.5 0.158973252225779 -0.0296303847331744 -0.28484679780829636 0.09352354164067295 -0.30720330521306366 0.10054425268703002 -0.13100200396606737 0.031649429489767365
65.0 0.05748075199474097 -0.07888782338354063 0.2822085479153025 -0.1134032075325464 0.2974730340053331 -0.1254403915818112 -0.097409227236151 -0.058711455552596326
65.5 0.05754421288231966 0.019303124379231186 -0.2861481208597983 0.12736042067833794 -0.29091650402376795 0.13019649247836443 -0.047990727158708384 -0.00016952723883444332
66.0 0.12482425702626505 -0.03597908039773257 0.276648930045457 -0.13119134761591156 0.2839660247395546 -0.1507794509320468 -0.14028012023319672 0.012552590769480506
66.5 0.029187148637316824 -0.060094894453410756 -0.269635651082844 0.14917481459507484 -0.26576959747140877 0.1616123351349307 -0.12836729397908797 -0.06666608711450438
67.0 0.05046546978643588 0.04183712384832779 0.2636527139542007 -0.16820978564638447 0.2654491306704757 -0.1733762046008752 -0.07884372336241074 -0.011497990726515535
67.5 0.12023185945348298 -0.01668657269613316 -0.2553621606000929 0.1788599886801879 -0.24593991276938765 0.18551569405190524 -0.1579910174452166 0.025785105672644394
68.0 0.04073226485701945 -0.03550077345832125 0.24450662438420384 -0.19246719548695262 0.2355672997868073 -0.19086202753786247 -0.1541105111539957 -0.04166263667739316
68.5 0.07561201555712006 0.04634574315204489 -0.23071719367185448 0.2036694693026899 -0.22963366621495912 0.20724079051795075 -0.08885594595319908 0.007145458752958721
69.0 0.1362265205135152 -0.027636096075513473 0.21461638919264645 -0.20982760529317962 0.21171946177926768 -0.20704093514104557 -0.14697958415762472 0.054260052513539894
69.5 0.05331209781051867 -0.049329865549440126 -0.2009739424936675 0.22254021833800847 -0.20770758110179313 0.2154619711079444 -0.1461796461215695 -0.011855715504206098
70.0 0.08264094205568602 0.01953822619810345 0.19372093455624093 -0.2285087318355298 0.19344913977130856 -0.22823968443609916 -0.06927211469440638 0.016067538899140615
70.5 0.11852605755651496 -0.05209168681145976 -0.18092628870646021 0.227599762855669 -0.18664689882975863 0.2273859053676977 -0.11371329912024332 0.06067095531552047
71.0 0.029714693436912465 -0.05764793517090001 0.1661044347431505 -0.23745815029671732 0.1774327847757684 -0.2410316199329729 -0.12348461503091178 -0.009599447458022693
71.5 0.05841908803064513 0.012859239094687377 -0.1586856773190216 0.24714820245183292 -0.16150647126610837 0.24490861038631592 -0.054850192294785036 -0.0061133889411697185
72.0 0.08658962517127658 -0.04636670312657257 0.15368744043103713 -0.24663265591025613 0.15919794205759952 -0.2537328592609065 -0.09342888248568612 0.03635466066315774
72.5 0.011062284819058967 -0.034270198586409825 -0.13816517946796059 0.2537007301175786 -0.1398550975484352 0.26156199277935166 -0.12251594148704671 -0.029460481182301063
73.0 0.05357368993681053 0.03571748956209133 0.12554352033329158 -0.2639935141980136 0.13017354943280318 -0.26778387170842266 -0.0678623976477549 -0.034866633332758384
73.5 0.08356816196911432 -0.020926660500125052 -0.11852633507071338 0.26895820401472803 -0.12032481158074952 0.2766215019163041 -0.10200544578453304 0.012944694259955128
74.0 0.0255250003378117 -0.007836762807089781 0.10400373775161954 -0.2745754143022945 0.09879412085389162 -0.27964695729006206 -0.14723142397055564 -0.030548934507102776
74.5 0.07503007445486627 0.03986987986470171 -0.08621862440631138 0.2807455816164924 -0.08962688903574828 0.28613568024006497 -0.10054631405534215 -0.03694977813381772
75.0 0.10073267446443408 -0.024422512528763304 0.07160051728533522 -0.2841514229377601 0.0717484705987158 -0.2892493639109013 -0.12017875708488039 0.020131023559148992
75.5 0.041729766728525144 -0.018773558776567143 -0.05380793037508991 0.287642608909891 -0.05673030599273225 0.2860583586434944 -0.15920304851381234 -0.004080388396362137
76.0 0.0777882152581287 0.016337634071087986 0.03837786261093881 -0.2864642432995345 0.04280619927095325 -0.29451404584762536 -0.11292918604818934 -0.01414410653032293
76.5 0.08553924084568396 -0.040821308903187824 -0.02668699591073511 0.2823502179241041 -0.025203693567327965 0.28945825154029453 -0.11059266863790447 0.039069570440361065
77.0 0.02408138127308448 -0.023267710144040728 0.010155930861138517 -0.2809747606938707 0.015602387213362785 -0.28729707100039104 -0.1408244262432648 0.02119610162688271
77.5 0.05492814363303607 0.0155514592398722 0.0028339121992680444 0.2786967120992522 0.003051480582021722 0.2876100441154997 -0.09831364269797041 -0.002857112648595528
78.0 0.06271188779174636 -0.024856699013046962 -0.009096505201180473 -0.2766974425858854 -0.013223587144381356 -0.28252512622454706 -0.0824908567559993 0.03384974531119126
78.5 0.017813808711305747 -0.0004761674874594616 0.021602015344727995 0.27417274784855317 0.02459890061221926 0.2812777418876626 -0.11511382592713698 0.017296465353033842
79.0 0.05579519315305049 0.038353120884724354 -0.035162897411715716 -0.27389742160034136 -0.039907866122419644 -0.27714907645156617 -0.0869687300484953 -0.019147264823704494
79.5 0.06914721545070604 0.0006782170196654917 0.043282363782989344 0.2735972047255876 0.04698048740732951 0.27351512782070003 -0.07347546074433416 0.00539297316332387
80.0 0.03960087225696975 0.017253894794906403 -0.053795755182325704 -0.27043802826192687 -0.06060940444418069 -0.27218529006126746 -0.11357796851695727 -0.002669639122625822
80.5 0.07697451937228092 0.04055071503159327 0.06920059081120217 0.2668467699241832 0.07308696106084747 0.26612789168495055 -0.10415223668158315 -0.03656215313936845
81.0 0.08960323119014749 -0.0019220494073798786 -0.08283350581725385 -0.266981356904888 -0.08161690595777892 -0.26707068655899663 -0.09301983968009953 -0.015210521185836358
81.5 0.05553388194832556 0.002679526030661574 0.0960601668996656 0.2624717062037281 0.09531765395489375 0.26069582387023316 -0.12787325772477856 -0.0052745656184694225
82.0 0.08048884729847218 0.019938747676612488 -0.11217096600782188 -0.25762830311713913 -0.10490020163129751 -0.25456008338633695 -0.13269586229646987 -0.027842788609602275
82.5 0.08198808565688367 -0.015740084329551814 0.12347223450131144 0.24895847424287088 0.118410205785297 0.2531671472224062 -0.11352463595744068 -0.00750054710206422
83.0 0.04449594791582688 -0.006319174251288308 -0.13605338196585667 -0.23815307538739322 -0.1310080297098898 -0.24446364690824826 -0.13373515254958998 0.015172130415475858
83.5 0.06055629248223479 0.021197025182609706 0.14838531175275674 0.2284096302449889 0.14142699676063944 0.23805316702951235 -0.13556897545265742 -0.00011652552372621096
84.0 0.06858524418408367 0.00026348861195066406 -0.15586578811725182 -0.2204072774404948 -0.15693470629626766 -0.23130512870818576 -0.10929070764338657 0.008555804280606774
84.5 0.043364284394614296 0.012969583633350809 0.16332322578100808 0.2101435540018345 0.16513438888422366 0.2214710302050544 -0.11336300999562421 0.029991679573749732
85.0 0.06406982305309414 0.04115125589307831 -0.17083103915132966 -0.20017798185973776 -0.17721244378464 -0.21294668285875185 -0.11794947292685813 0.012173268111395779
85.5 0.08676430554784856 0.019225723500709165 0.17714829944881624 0.19158905388144323 0.18722274274221437 0.19829406656856366 -0.09009522965689398 0.0020450270789915247
86.0 0.06492821505869921 0.019264198845120623 -0.18208163181074327 -0.18635900283276172 -0.19462543761927023 -0.189246146626354 -0.08937984153640824 0.01716515049180658
86.5 0.08429402037412552 0.03940116046595791 0.18866415640479392 0.17704318296667557 0.205114161298983 0.17952981417828381 -0.10717652276259215 0.00039874508689207333
87.0 0.10376148216150002 0.009355171008170413 -0.19817789914882952 -0.16824533411277526 -0.2092550494000844 -0.16483345871123684 -0.09147623694685066 -0.021104250478009037
87.5 0.07501575793311031 -0.0003361947531739137 0.20783289097912813 0.16374148718215792 0.21255073134556182 0.15646276410209353 -0.08936774644167511 -0.006825300459815643
88.0 0.08402244774106421 0.019961418476103377 -0.21521265635236933 -0.1534479909095679 -0.21992917479217453 -0.1449298741076143 -0.11919463037755539 -0.01018192349182743
88.5 0.09992751218430602 -0.007117491179417703 0.22321251563587544 0.1414813425978382 0.22327154257834245 0.1347373104188159 -0.11612968666139553 -0.031198207422493022
89.0 0.06360581557373492 -0.013409267158172119 -0.23176264755503737 -0.1298096477901224 -0.22497379941384735 -0.12482908755634382 -0.10628313436225736 -0.01195141312957923
89.5 0.06871312778495656 0.022094350206242706 0.23678945367523854 0.11459664827900724 0.23051660620918682 0.1133663323603933 -0.13512898724645409 0.0024339596867976837
90.0 0.08800735241436561 0.0035638255267648232 -0.24115350898026108 -0.10095320363737796 -0.23474280124601948 -0.10653758140357632 -0.13694330152172918 -0.01721370818033176
90.5 0.05711993779676805 0.00021169167780914317 0.24391972306858814 0.08826739582143589 0.2409882924864235 0.09604932451489627 -0.11318175522510726 0.0023596089489627053
91.0 0.07140196920847185 0.03863215487086438 -0.24263564011257804 -0.07363766046654226 -0.24141201588632813 -0.08507435585679286 -0.1285534926320413 0.026337979974444366
91.5 0.10623896104664164 0.013133924437391729 0.24281823303090266 0.05998341996200102 0.2482651846172467 0.07495491798818812 -0.13212741961511518 0.0018990326090981583
92.0 0.07561859775820659 0.00029237126769661404 -0.24479653432645931 -0.052898440790572085 -0.25364715674153526 -0.0602301445098387 -0.0919889882468897 0.008044128826373096
92.5 0.0900388125181695 0.03425097939177318 0.2419036500593334 0.043739331174587406 0.2552240740609303 0.051108720091041636 -0.1055083154056645 0.03355726095290432
93.0 0.12205139817329186 -0.002894797607853374 -0.24093254711667494 -0.03181448791452303 -0.25794953606644694 -0.03628181426539321 -0.1181321713193479 0.0001796552174075958
93.5 0.07858771222172044 -0.020459727906606683 0.24673029902272636 0.022420178800177982 0.25794827590388464 0.0221459301762837 -0.07873858438153665 -0.008475294666326986
94.0 0.0886933549326022 0.017472364936662287 -0.2466819970991089 -0.015597297867739852 -0.2576373927013511 -0.010813733936177917 -0.09355545439145684 0.019246408645104053
94.5 0.11327099524849298 -0.02093983489176629 0.24559440498565732 0.003462284145352864 0.2560875526027947 -0.0067912778986102314 -0.12198271754055472 -0.014472324019338834
95.0 0.05972117926243114 -0.030518314424838197 -0.24735514458811783 0.009365488196018724 -0.25282621245607584 0.01884691918854965 -0.08977996691600464 -0.031658827323924436
95.5 0.07153633102668784 0.019652139037918626 0.2517950703994572 -0.021960303048639475 0.25237353315838035 -0.028596632719665983 -0.10176477119271507 0.007514259806110764
96.0 0.1001772505981382 -0.014944120584250856 -0.24801166965666058 0.03376790496083267 -0.24454188003160973 0.04331379110840593 -0.1428927856774764 -0.01499758391995784
96.5 0.04901532393486612 -0.01626321448833018 0.24582824701313064 -0.049398833972863376 0.23985417826564026 -0.05072398577409441 -0.10886279319821608 -0.033521717484315566
97.0 0.07631526594496887 0.036299258995561245 -0.24188115754320919 0.06189484067970557 -0.2392058811537535 0.06270444250971559 -0.11019100116838118 0.016291595128196158
97.5 0.11485660948912584 -0.009498040161114817 0.2328535617304184 -0.07452910818634839 0.22889466308893403 -0.06982300035652853 -0.15397182632886958 0.005231871720129602
98.0 0.06080129971480888 -0.015717406880414234 -0.2276440242652255 0.0849464753054397 -0.23010292728690707 0.07936271998513779 -0.11577442937867652 -0.019421278913743067
98.5 0.09376593195198929 0.03044285139698605 0.2217933121023722 -0.0914180906047285 0.22238572839613688 -0.0888627185961739 -0.10091152608421491 0.03183759653677377
99.0 0.12096556716402442 -0.027543839970447584 -0.21221474201111065 0.10007092776813502 -0.21607936676496275 0.09358815544305843 -0.14404393393265016 0.02459773165669342
99.5 0.059497036467404 -0.03280419979985648 0.20852473447952832 -0.11135055151999596 0.21558112878773592 -0.10811821075747098 -0.10785794969532297 -0.015173243056726007
100.0 0.08733308967893236 0.01620143459036805 -0.205282668493288 0.11485097026419784 -0.2086288153098337 0.11450977112561887 -0.07817622737571216 0.02933551746732562
100.5 0.10573196220731522 -0.04089042664926641 0.1973298011921412 -0.11899945920253922 0.20599895067000812 -0.12185958486269231 -0.1268988432937594 0.024515767667760518
101.0 0.037501587556720645 -0.03386813879499918 -0.18998049555303173 0.13042939270995266 -0.19816656266853908 0.13685824991317103 -0.09982731504047218 -0.02941869000671987
101.5 0.07405883389843153 0.021543885860428463 0.18985286539417026 -0.14137429518862898 0.19263964687950305 -0.14186670827994477 -0.0683186457499627 0.009841673576551644
102.0 0.09367904597975622 -0.03582911869218678 -0.18467666826467427 0.1467398950947637 -0.1864606698949164 0.1550734401451571 -0.12597890626786384 0.013176780666192735
102.5 0.02775040795634495 -0.01568546340966638 0.17597199191464122 -0.15899313782589442 0.1751164724441147 -0.16474316420937293 -0.11320932505741471 -0.04342449104249194
103.0 0.07946780755330743 0.036691896147826426 -0.16720534822644523 0.16909183826909158 -0.16966925328478388 0.17081600304996872 -0.07862897829016297 -0.005407370280082384
103.5 0.10220063723041552 -0.02972084734544904 0.1567286856254394 -0.17471342341912438 0.15735312778229674 -0.1807553016125118 -0.13793126221794175 0.014735880961091819
104.0 0.03679793888726847 -0.009814950669000906 -0.1483430679763468 0.18517518703024227 -0.14673038572881386 0.1842168278227842 -0.13613971036338918 -0.039595214211673495
104.5 0.09519399575230246 0.03123225623279238 0.13656369822829006 -0.189179815649349 0.13941448126199965 -0.19355009247164157 -0.09017192444695221 -0.001148944763538715
105.0 0.10312567161238939 -0.044194857236510246 -0.12349211579144259 0.19036365999710209 -0.12493892076140281 0.19487196533249931 -0.140878527706898 0.033178588387010675
105.5 0.03506696803961361 -0.020247714404331433 0.11182110669093524 -0.1971919053867617 0.1177060269960789 -0.19839132225676637 -0.14191775583931535 -0.021951413800217208
106.0 0.09086994424443649 0.019442099465795996 -0.10632955250745356 0.20037505757606042 -0.1060231871327811 0.2068584472131465 -0.08239757159538012 0.007728656337713347
106.5 0.08664662469545367 -0.05328395507199219 0.09693133584083706 -0.1966844153599682 0.09695693560372272 -0.2013417573119424 -0.12497150729772996 0.04734825084655891
107.0 0.018899188608644313 -0.01481170486007916 -0.08552046907933122 0.2019883772632541 -0.08801987829789326 0.20710468474780236 -0.1318964605547255 -0.013430325187099534
107.5 0.08023525387554785 0.02593977031086706 0.07983713681024883 -0.20941393573506262 0.0769080046358577 -0.21158649769983248 -0.06763293193131469 -0.00013738366131246487
108.0 0.07466163980829943 -0.0437291583634236 -0.07613862974943744 0.20823909485496456 -0.07373378515655876 0.2097594419108349 -0.10628792627493933 0.04237834986186409
108.5 0.014025306188180812 0.0060806294400124914 0.062033768287214436 -0.20880636482146284 0.05988234217317422 -0.2169316245289991 -0.1284191115936361 -0.022075555484005447
109.0 0.09111105678694645 0.03926956563918188 -0.0523257546394618 0.21785300190644785 -0.05102739347962181 0.21579632135418952 -0.06525316263612789 -0.021072993619135044
109.5 0.07973892585171735 -0.03525967968339318 0.04566685435785763 -0.2196337872112663 0.04710155518207957 -0.22149759044079118 -0.10491546187868075 0.02943429094056324
110.0 0.027719712715829164 0.014448008168080367 -0.03298310340231752 0.22237285628359824 -0.030391742475712268 0.2205761840661111 -0.1402346002945326 -0.029246499073366624
110.5 0.10437710143076089 0.03164536211818913 0.01962147525327676 -0.2244220147650486 0.02440442415640079 -0.222031403902193 -0.07957088695740427 -0.033005439536504
111.0 0.08272104773247253 -0.04594106531758301 -0.008726857792537183 0.22256438506651272 -0.012541684259830004 0.22557591507072014 -0.11147211216558779 0.027069672766369873
111.5 0.028614038579626456 0.007869987935084814 -0.005339577635675964 -0.2230210595200727 0.0003533900022635295 -0.22174342066212357 -0.15641872013206098 -0.018598609258978594
112.0 0.10067580841037496 0.018912718313138 0.015530081778632672 0.21904048802608608 0.008944269735337478 0.22631348034928336 -0.09643274450410283 -0.02893633313404719
112.5 0.0670779837433215 -0.05076462433589599 -0.021837443633158312 -0.21397503575882282 -0.022733528123330054 -0.22035605001615285 -0.10974463720453353 0.038646773566948615
113.0 0.019148877858562913 0.016903407206273927 0.03520320424683692 0.208748990063828 0.030369174101186662 0.21757181108727716 -0.15567757080831401 0.001184463659390223
113.5 0.09213481569781863 0.0246398719054387 -0.04382892208740573 -0.2096482332448142 -0.044803020809893755 -0.218024093538867 -0.09237541032257185 -0.01984843760755725
114.0 0.05833206059977616 -0.03804611136293239 0.0456908776772215 0.20678118921633643 0.053035462591805534 0.21029215517705277 -0.0938168773610126 0.0443357974492281
114.5 0.022506663788510784 0.03360056544643507 -0.05521738163296579 -0.19944452591303108 -0.061036816565242895 -0.20931808413746222 -0.143102413152136 0.010321072918552344
115.0 0.10445491670182963 0.03325714045080719 0.06773970937866165 0.20117276698354677 0.07422390292748386 0.2026307576890586 -0.08438460856816495 -0.026059585019973124
115.5 0.06578126415610616 -0.02876490576054884 -0.07094913154230853 -0.20115166011571467 -0.07728582041819193 -0.19802344419242524 -0.07839545156704592 0.03325926281319311
116.0 0.039649909720944475 0.03897402366558087 0.07962315919063297 0.19554061332403486 0.08763599975004585 0.194956323336249 -0.13563044704852426 0.004144455007930439
116.5 0.11698406801576561 0.02336500353959782 -0.09178406410592026 -0.18912100600780618 -0.09527585716866412 -0.18636544615912712 -0.0897258912238882 -0.041315052225147746
117.0 0.06799280912244782 -0.03657136717571545 0.10123281553571334 0.19029004873532332 0.09959624316519551 0.18589854400592423 -0.07844901336226878 0.01616335526491291
117.5 0.04685966914458148 0.03193131361375624 -0.11226744432951662 -0.1845881814435624 -0.10996727571770384 -0.17686608772882956 -0.14334220670298706 6.34499259397081e-05
118.0 0.11267520922192586 0.009663791441391735 0.12099737186309019 0.17638823512097518 0.1134266495521312 0.170970733971332 -0.10786533491441745 -0.04639504636848577
118.5 0.055111434382443716 -0.03920763089481282 -0.12763687661137524 -0.1687763984955265 -0.12273790597162913 -0.17116022352708976 -0.08878742721519531 0.011049294510516382
119.0 0.04031671140578396 0.03678387276514657 0.1352064736153686 0.1568714869380079 0.12950763792106826 0.16203758130938117 -0.15168730149305476 0.0104347332475579
119.5 0.10681010535505998 0.013708731663334745 -0.143478126174552 -0.14977986594820517 -0.13599616663429612 -0.15957136152997467 -0.12260541728475563 -0.03596115575111414
120.0 0.04836325074088429 -0.023975350590498868 0.14620365583739478 0.14562199436580028 0.14805417632968207 0.15354250313147336 -0.0901984185328775 0.018313108924257474
120.5 0.048209295273400204 0.04841846716674496 -0.14888996954315611 -0.13410284441262083 -0.15009656127673418 -0.14421816577734334 -0.14472915411899118 0.02710060998838326
121.0 0.11458340815400814 0.017497591358042214 0.1553688887004185 0.12628582319280257 0.16092380835893896 0.13991384414856042 -0.12121762266843199 -0.02372101985036004
121.5 0.060156072436177904 -0.01782570745901042 -0.1608028016242751 -0.126184022273311 -0.16944999935878013 -0.12979693604091688 -0.0787227231522713 0.019334328375455997
122.0 0.06463354274773936 0.04646876411262212 0.1605880698853009 0.11693410121349944 0.17112993010655564 0.122138612625365 -0.12945968595265728 0.03182451069497076
122.5 0.12277818524134129 0.005115618862761566 -0.16603181424689403 -0.10809819852633037 -0.1816348871447347 -0.11052513516193808 -0.11352272562337307 -0.024949832108540432
123.0 0.06378220890028394 -0.025889818491266217 0.17662829280559011 0.10565115633883883 0.18132525279575684 0.10007345045521865 -0.072829289158555 0.005686647605341268
123.5 0.07136381823518861 0.034978563721005364 -0.17855558734308596 -0.09739720131784319 -0.1852356737614193 -0.09319516520546194 -0.11858168506629913 0.022457897270261984
124.0 0.11549941399618756 -0.008213751786347307 0.18276362350763667 0.08641818260771897 0.18835856669139894 0.07882146366417192 -0.11885628054457775 -0.033809664143879016
124.5 0.05221155380483515 -0.02752951611715614 -0.19291781726825652 -0.07906318476820483 -0.18953295554122937 -0.07436423790643595 -0.07496601644870836 -0.010634939490896812
125.0 0.06443674851102218 0.03425102362306927 0.19422396269506187 0.06650766291901655 0.1928264814482533 0.06391267540492485 -0.12312236591387411 0.016135049555453695
