! Created with skrf 2.1.0 (http://scikit-rf.org).
# GHz S RI R 50.0 
!freq ReS11 ImS11 ReS21 ImS21 ReS12 ImS12 ReS22 ImS22
1.0 0.30347480547825756 -0.31286805163683357 0.7636022975285148 -0.1271797102843062 0.818225173160459 -0.2176282274505511 -0.14844233397409182 -0.2669078817319638
1.5 0.018132406161928193 -0.16685704199197499 -0.8131051663038775 0.201175903888831 -0.8153863034527398 0.1978855892170917 0.043725072942926324 -0.20862244956385903
2.0 0.21180070977453422 -0.05840039948547204 0.7826983530893697 -0.18023485362450709 0.7784405946945374 -0.26522098583051157 -0.21137946514971906 -0.003498797487448675
2.5 0.09555896216315043 -0.255604782025318 -0.7330221146507889 0.21394070125809755 -0.6872317023544298 0.26741129372677913 -0.3318276082546941 -0.18186794395017106
3.0 -0.09120909748243296 -0.00444737768021262 0.7269414627429944 -0.2858112339808449 0.7287454657090262 -0.2859725195358563 -0.1295662257868077 -0.10632245550400207
3.5 0.18003509667422626 0.08112339641225193 -0.6908308217677342 0.3063543912908981 -0.6560978640561239 0.3127091353649292 -0.267203550026692 0.15036434177896496
4.0 0.12956451959175003 -0.11975035197052991 0.6634127399209144 -0.33584290086081403 0.6310465373832099 -0.2896740531185778 -0.3469618884832259 -0.009888895358466435
4.5 0.03870685207066992 0.07333344944617211 -0.6531610857560869 0.358418915798696 -0.6513356465988978 0.356519053505205 -0.08844491598467775 0.04529026450625487
5.0 0.30142605079669404 0.05223777400522307 0.5867463951773582 -0.3476356323645197 0.5913827053227318 -0.3316326307978419 -0.15079060146481096 0.25346599608862114
5.5 0.2060431831179453 -0.19974271580441658 -0.5547584329806104 0.38472154075036114 -0.6054315578235343 0.3446708504003814 -0.22224684417024335 0.07711924847742453
6.0 0.08885183339465505 -0.049266327615903896 0.5752455475350655 -0.41363311654379153 0.5750816986080437 -0.40788984387529237 0.05308271022877562 0.035076464328927894
6.5 0.28460970659905793 -0.0841173650871352 -0.5392146038828388 0.3653445745466215 -0.5637691664676449 0.36602116638785537 -0.0069650194496959986 0.20601537256194208
7.0 0.11002924915407923 -0.288795246202891 0.4870797533646869 -0.3884991901301327 0.5528564788494436 -0.4261592466997728 -0.1171666507493595 -0.0026172463737886907
7.5 -0.03307462974627456 -0.09956618345848178 -0.49731884280572836 0.4491294869782545 -0.5052479201904244 0.4448975924614916 0.08494653673533219 -0.10110826596190099
8.0 0.1533653978122657 -0.11142884876888308 0.5037645774365221 -0.4147908464621626 0.525881123498511 -0.4353009548456516 0.01629860108507927 0.06999692949170662
8.5 -0.014028216888592675 -0.23879092749208078 -0.46304262005347196 0.4122497966582043 -0.46087000505202425 0.479702885159527 -0.17076279183492368 -0.10590594756148547
9.0 -0.10284673122599762 0.00962915027886439 0.43673075346930895 -0.4702296605520452 0.44333289941101744 -0.4717054626885235 -0.01910186523588739 -0.18468764313320227
9.5 0.11292338499546739 -0.004148031278814286 -0.4415854500486858 0.47291918357913953 -0.44705421762310604 0.49913031118008716 -0.08803015125315518 0.012055473407126021
10.0 -0.006971513155318773 -0.12407333498395907 0.41884845551525773 -0.47237587601180003 0.3753444561842372 -0.4887389670246815 -0.2765308787922063 -0.07912638514721629
10.5 -0.018753103218477316 0.0883574982365302 -0.38495064934488404 0.4993440165106746 -0.38865115328703526 0.4991052060585996 -0.13128775408633184 -0.13936652188255438
11.0 0.20701592564972668 0.011576236455999374 0.35766387428525476 -0.4958351269577708 0.35283557331333104 -0.5192354114166781 -0.15178167490400807 0.09066916691101021
11.5 0.0706385647071886 -0.14358871581805616 -0.3325441275690369 0.5082179961277756 -0.32360817914909656 0.48441128418124785 -0.30166854567269835 0.027452089323044243
12.0 0.0443186925591384 0.01844256293070931 0.31538456540086013 -0.5313069372031732 0.3246265506304299 -0.5274387446974569 -0.13263352776624468 -0.03413099628516318
12.5 0.21068152193287565 -0.08514328012126683 -0.30261808981023663 0.4997667535725859 -0.2839473824377253 0.512123869901369 -0.09125078948837456 0.1690237750004105
13.0 0.02137303296285792 -0.21542725783117703 0.2624543649718872 -0.49748151530337215 0.28586828737179787 -0.4946026960975639 -0.22724562411180627 0.10106650338217647
13.5 -0.030648710799054825 -0.027806735676925223 -0.24374461110030993 0.5345948285485683 -0.2544215012007754 0.5390702744470803 -0.0435705117808873 -0.009315669731702446
14.0 0.11421228004178326 -0.10969142827660362 0.2611785638222222 -0.5090528152758408 0.2440968374950173 -0.5060789612121845 0.009215267117881606 0.14871643775940593
14.5 -0.07289043842164598 -0.1796424175235364 -0.22857147138607914 0.4921524820427281 -0.24487236255614536 0.5218262065871525 -0.13407472333157258 0.06807242195908976
15.0 -0.08800370961724387 0.04883885934538709 0.18988271119317404 -0.5257960421963199 0.19459873614789933 -0.5330478234113484 0.00015603856087873264 -0.08790759440946895
15.5 0.07135648156891347 -0.02839089611376189 -0.20903626298166708 0.5306233614979533 -0.21192069515768203 0.521863273150331 0.042835640429675234 0.053337346976637355
16.0 -0.07663624591878869 -0.08027867727485806 0.19353616951506447 -0.5154561960798372 0.17845640524851614 -0.5430352274031758 -0.13970363458199628 -0.015864400251013176
16.5 -0.0293686734556184 0.1246009983953607 -0.14954723383498894 0.5280393388355014 -0.14816390836282714 0.5262243210980607 -0.05842567284993571 -0.16190968152415913
17.0 0.13908358590763306 0.012560422003068289 0.14302628602620057 -0.5422499894723234 0.1618024434532919 -0.5445199069391455 -0.02187538807780029 -0.015503993275681527
17.5 -0.0031974786131081343 -0.06446611279166727 -0.1304847528163877 0.5392177592597975 -0.11361455399979152 0.5395349109722059 -0.2166006220211197 -0.028040790973958486
18.0 0.04406179931900952 0.0860291193693382 0.09770042374461707 -0.540106410360087 0.10656644484831987 -0.5280662684418714 -0.148267818556918 -0.14714997768228646
18.5 0.17134720151077024 -0.05639888590459036 -0.08656983508136101 0.5274903943524176 -0.0906286426384146 0.5544566115855815 -0.09163574539359716 0.01803907001003832
19.0 -0.012322008911889991 -0.12431665243691732 0.05838799459139374 -0.523196961459598 0.0632917121290867 -0.5203346461899384 -0.25278925247225065 0.04224351586280752
19.5 0.007428506158161496 0.03249036417035409 -0.030367703022206937 0.5351614619685434 -0.057149810612503335 0.5342935664275509 -0.17633292875829312 -0.06912199029868751
20.0 0.10059867676876583 -0.0909235939300653 0.043265767955431675 -0.5198242850731994 0.022716142980088488 -0.5382311144735946 -0.07487739562444802 0.0865390447887406
20.5 -0.08507842362079085 -0.10677628153158118 -0.01972968759184841 0.4963683963485426 -0.02371687074405571 0.5077819191765139 -0.20946489408979213 0.10937380350756651
21.0 -0.041798416020862796 0.08120981769227985 -0.018059389755152193 -0.5040571904094486 -0.0023603145663411177 -0.5290973816345896 -0.12214419154598599 -0.020485253943675626
21.5 0.058411916297400474 -0.030078340726468106 0.0023415765169946963 0.5138337994113256 0.02245473930415481 0.5089288124408461 -0.0009029446796690521 0.09287358670558754
22.0 -0.09431234961006062 -0.026623806870371955 -0.004901717042563518 -0.4913481120695549 -0.013851025031323716 -0.5044006723378041 -0.13247717068425577 0.1059666492518018
22.5 -0.0025624871418198658 0.14680268141595462 0.0456582607706601 0.4826812260111597 0.05893648385981468 0.5064490274956192 -0.06909581451622271 -0.0594219630547908
23.0 0.10690513932287538 0.01829781570906872 -0.0488288952066841 -0.5033122705950884 -0.04986995464250007 -0.4883460921987199 0.0384404584568649 0.025569330409433263
23.5 -0.029288514344864215 0.0064741240615019185 0.04626089204748504 0.49667475045716675 0.059891896075970966 0.4985711846509107 -0.10531551185567266 0.04105524514559661
24.0 0.0693852388437679 0.13189089777343302 -0.07758085206442966 -0.4809517099235665 -0.09383267307800235 -0.47416451973553425 -0.09200306992203906 -0.12288668191327602
24.5 0.15257939375549037 -0.026635617121722924 0.09395347438054567 0.48403167436360617 0.08013290931152485 0.4818443481648549 0.0035475976807505844 -0.04089294670032176
25.0 -0.007095144370521388 -0.04199895891581747 -0.10867509382104458 -0.4842129802170334 -0.10555141530653396 -0.48145171625716543 -0.15352839943679253 0.004200289519624357
25.5 0.06696909409338198 0.07433848211592417 0.13192688041098713 0.47207578043336995 0.11707337720317514 0.4557951535635797 -0.16225643890755145 -0.12985857724716707
26.0 0.10893652010075029 -0.07162892836909984 -0.1339624635103547 -0.4652117478897531 -0.12402589581900328 -0.4795795645814758 -0.06400108314792871 -0.04135390431518442
26.5 -0.06364879697278844 -0.04849279467909119 0.1497957706938181 0.44362941366641323 0.1444259820195288 0.45634430605993254 -0.2021630507576792 0.04152345742652964
27.0 0.017803789563980415 0.09031193153862545 -0.17786609569853187 -0.4348282022444993 -0.14783011140931895 -0.4477307509288049 -0.20183258943617932 -0.07379569796039859
27.5 0.06181128061137422 -0.03080595862129884 0.1696284082796385 0.4392855085329164 0.174629365146427 0.4599881988617475 -0.07955403077058558 0.013631605644410343
28.0 -0.07623768941525638 0.015957242058562478 -0.1690744420816344 -0.41770790190347185 -0.17685890659458983 -0.43127211935419074 -0.1850168817062914 0.10192150052847755
28.5 0.04114054543064202 0.14477479375835922 0.1973538615760857 0.3970637895089808 0.19119314557362113 0.43490401755819935 -0.17592453273661476 -0.016439162423753772
29.0 0.09688235874386925 0.01627483199309871 -0.20204925818033134 -0.4125326991265674 -0.21822500351333 -0.4212508733951991 -0.033690548529090654 0.04118924203068317
29.5 -0.024816387203977244 0.05353776897569101 0.1920868991167412 0.4071574532785766 0.20720831765145825 0.40731833591574185 -0.12128940022643021 0.11710909234279544
30.0 0.10436509846366375 0.14269375507009938 -0.21099834719538327 -0.3828965650031981 -0.23714015196458313 -0.4048542219699127 -0.1216472983005932 -0.02079386111197929
30.5 0.14454699597604861 -0.009910457056328712 0.22910583929159153 0.390575099206571 0.24435914851935547 0.38217251186383966 0.011522242355972488 0.0016906865780816052
31.0 0.016458044795666926 0.019224388705274764 -0.23701332378274875 -0.39455679207069233 -0.23838858593906528 -0.3867149411282684 -0.07912456101809648 0.07185440799635674
31.5 0.1198667679916551 0.087114642132733 0.24726858756615874 0.3722084904476306 0.26607314605354837 0.36149159492793176 -0.1166834486821878 -0.0716077021981883
32.0 0.12507978848518378 -0.061334350207742125 -0.25776406681455694 -0.36547011532953655 -0.25614444624767463 -0.3527200929949775 -0.0036979654893165813 -0.058077181421585404
32.5 -0.01988123625172543 -0.008571978627586218 0.27377318300574316 0.3545483442293159 0.2676331644059309 0.35408604211553546 -0.10059663688302323 0.023173449516353632
33.0 0.07836132136505808 0.07690851617468918 -0.289042194453746 -0.33619949496855456 -0.27597916105808634 -0.32506590811460206 -0.1651381772308108 -0.0940657344828825
33.5 0.07424339258493265 -0.04223113635743565 0.29219623993530924 0.33291322603286483 0.27491718275535476 0.3364429956713143 -0.06048131749563112 -0.07716283166954191
34.0 -0.04292234208861035 0.037129032978007785 -0.2890058903212534 -0.31448989276452566 -0.29201582937571335 -0.32497699579955264 -0.1482309501763296 0.030762041652729704
34.5 0.08249191311551679 0.12039636454067076 0.3037491264486541 0.2877842014180969 0.28525723121326707 0.3046072331677834 -0.21003755156292397 -0.06030647194171958
35.0 0.09045649021457522 0.0016688096713196616 -0.30976423013700594 -0.2958908192822201 -0.30304843652578894 -0.3162916787651615 -0.09594306980210375 -0.03964908034208548
35.5 -0.0023524824852785803 0.0746679253244201 0.29825503124893854 0.2892573095048804 0.3074706913074979 0.29312079043255257 -0.15170742171280982 0.07822569876144093
36.0 0.133467798862283 0.12441082422234223 -0.3019709062960052 -0.26135803987242623 -0.306907137753081 -0.2897038205029686 -0.20582691430464953 -0.006127244544858193
36.5 0.13782363441447987 -0.009962422448912746 0.3187009955430083 0.26435596816898593 0.33411679180976167 0.2830175786739711 -0.0759377220705192 -0.00035547024099652746
37.0 0.04213992867862867 0.05095109814618638 -0.32128043777603377 -0.27056927688245624 -0.3277803000899629 -0.26695096930101675 -0.10972964598859287 0.10692112260856947
37.5 0.16002441354083993 0.07959975974447507 0.31800598676393677 0.24771460295106873 0.3401577545373616 0.26083065754105705 -0.16105862282537062 0.014026584801546274
38.0 0.1334496045534439 -0.057517013947174116 -0.33374171798902097 -0.23986766730794118 -0.3563952061149973 -0.23806796987965426 -0.03265602630808176 -0.012484129106811969
38.5 0.02586690881968044 0.012626918688664474 0.3448947097253634 0.2382211685832834 0.34619120340508375 0.23499607682399865 -0.06384246917019247 0.08199049878211499
39.0 0.1288494672322828 0.049614945743360804 -0.3500302391924647 -0.21924529490298292 -0.36322104214914 -0.21530214687586344 -0.13007119496785877 -0.017708631399526078
39.5 0.08744220429454201 -0.061447447128713896 0.35571851241922775 0.21046082331262764 0.360482459404753 0.1963159670228626 -0.02844044855445245 -0.06023148336660827
40.0 -0.005389593754013687 0.03486210670074748 -0.3584688457141517 -0.1917545235061212 -0.3601008258058986 -0.19861321595332285 -0.06345187804736732 0.03201877615836756
40.5 0.11300579275595128 0.07998328750643734 0.36253150336169643 0.17035853613111962 0.36318709054084697 0.16888814074179279 -0.15532850381368754 -0.04996660002023662
41.0 0.0847165393420325 -0.020135365705965816 -0.3673519443705409 -0.16697112727262756 -0.35760718731644825 -0.16661783452664128 -0.07053464083350225 -0.08993281174695002
41.5 0.019901937158167987 0.0731110293681383 0.35839942688327564 0.15884410289743958 0.36789790322799043 0.16189403641276298 -0.10002491231884926 0.015782249703015054
42.0 0.1494791784784761 0.09046483331040737 -0.35329474623269896 -0.133262425262363 -0.3546327392390204 -0.13969052567501838 -0.19732745530744755 -0.03714176467582498
42.5 0.12378333989112245 -0.019728577547542942 0.36564010076038883 0.13255307263956415 0.3609420334361639 0.14479341723667166 -0.1146956715976655 -0.07018600368544779
43.0 0.06303185547995685 0.06054584789848622 -0.36160551377463546 -0.1346108980150259 -0.37055670625256276 -0.13138945184019815 -0.12301389968693038 0.04659518073603322
43.5 0.17688250147115372 0.05487668179319664 0.35031538166920206 0.11800550926211224 0.35851120910981527 0.12223259592474171 -0.20739678222726976 0.008246972190427934
44.0 0.12961405074955928 -0.06026458927041196 -0.36606948417772517 -0.10763595765280257 -0.37637560285238136 -0.11739614357762651 -0.11648923937831898 -0.028905257902727383
44.5 0.0614722767246605 0.021309740147322627 0.3743555855250601 0.10714416855406135 0.3731467289624891 0.10314242666477096 -0.10106822357361119 0.08014167241177628
45.0 0.1581782561312764 0.017541851080591166 -0.3659195355488347 -0.09782731616541031 -0.3707173683664298 -0.10121069855527605 -0.17421752387030945 0.03856276827048066
45.5 0.09256381653428766 -0.07802952759224027 0.3732513761043899 0.08250947456472221 0.388174063323451 0.08089149927154549 -0.08087306250235006 -0.017291036762044493
46.0 0.026743063861551817 0.024051040794043837 -0.38304417137937663 -0.0680567193074543 -0.37984039622224874 -0.07301687348571359 -0.05766975190471777 0.07225629393487304
46.5 0.12898755038597112 0.031015907593332424 0.37935046746578766 0.054466036185945456 0.38610973989055475 0.06444312661297914 -0.13711260099739273 0.027068286983099356
47.0 0.07110081386051635 -0.044717339165242266 -0.3790860496173815 -0.042729757623935126 -0.3845219461269428 -0.03759643510385419 -0.06126772647559631 -0.04915927789805509
47.5 0.03450022484693056 0.060295112506636175 0.3760061780105291 0.030553780029920857 0.38207965720786363 0.03793137918719355 -0.0422808701844848 0.030565254151476887
48.0 0.14992438865694513 0.051743452698462394 -0.3626122782691421 -0.013309763477069265 -0.38252002208943886 -0.018781637414492472 -0.13904207002298152 -0.00813257984043386
48.5 0.09922020404495845 -0.030628138607279615 0.36711620889387797 0.0039084657876250276 0.37139005588069446 0.0032350450876332134 -0.08536968849647694 -0.08156867549119884
49.0 0.07407501708967697 0.05716750489580806 -0.36403327916629963 -0.003915303693607118 -0.3770119755942566 -0.002797360806071963 -0.06813293193144654 0.0005709028080248533
49.5 0.17692589791036767 0.025996091977910668 0.3476232754518327 -0.007580523778189425 0.3674175870381621 -0.01697052487525317 -0.17187888841662077 -0.014248518661050043
50.0 0.11299941566297515 -0.061691348537609464 -0.3559248144237309 0.020891099698966582 -0.36130558561472254 0.020448329887506875 -0.12699443141930236 -0.07714413566383173
50.5 0.07963878138075074 0.020987337808352654 0.3601744539145445 -0.01915411170600159 0.3658023656659218 -0.028954736126823498 -0.1010338187517574 0.013535476058831717
51.0 0.16414240647148368 -0.010720312782114438 -0.34778704393493304 0.022856602688424488 -0.347180405028034 0.03765295069119388 -0.18998591067531434 0.01760716025364467
51.5 0.08400774386145443 -0.08452237627107785 0.3490270050459606 -0.03823947367470869 0.35511117777589696 -0.03990700625731306 -0.14383949052819517 -0.04212844392645358
52.0 0.04911818188910486 0.010509681755194325 -0.3584559477693545 0.04799122792049232 -0.3530911148890789 0.05414169266135115 -0.0966269365381941 0.045187561051139136
52.5 0.1289199457466791 -0.011309208364939047 0.3530960697414064 -0.053579207359825465 0.34275937214659435 -0.05262501817311081 -0.17288295979850446 0.05201922346635775
53.0 0.05467183770924284 -0.06267489198431457 -0.35206995834012805 0.0680643790475374 -0.3532432686178515 0.06567620730773913 -0.12004810692636633 -0.01609902848315277
53.5 0.04156184678238268 0.04214822553130036 0.3495218790222331 -0.0830231953640835 0.34460297789039196 -0.07652351268045587 -0.06276178088815565 0.05195131321019724
54.0 0.13511922584603958 0.01505892518130435 -0.3424018060334028 0.094095081500454 -0.34514790715632776 0.07622647661991312 -0.13352873572594062 0.05454267219870246
54.5 0.07241522408188236 -0.037743732621465735 0.34008748185466847 -0.1068649462634727 0.3454241701833491 -0.0993411662338596 -0.09392204082032386 -0.02910186395370937
55.0 0.07225702283357274 0.049168247274563426 -0.33090390111383844 0.11157536952792099 -0.3400000386607472 0.1031318827565764 -0.03856414274973566 0.02248842125938466
55.5 0.1625500493999074 0.002403879701939931 0.31552766941712873 -0.11759774642394408 0.34020605249448005 -0.11248414277841155 -0.11665974445966829 0.025896829129126383
56.0 0.08985455369401472 -0.05733859281255872 -0.3127536132841455 0.1296238524995151 -0.32993894747751484 0.13133883600495216 -0.09926911544138213 -0.05950505899372146
56.5 0.08524357522599192 0.01944749910958056 0.31450514399088025 -0.13028838816199143 0.3290346586040665 -0.13392511959814687 -0.052358081775616946 -0.011941376766017734
57.0 0.15615744362315678 -0.03172300001906692 -0.30028901674282854 0.12800103555746672 -0.3187295231321363 0.1476381072112424 -0.13731074225206066 0.005214849354110872
57.5 0.06879380157990737 -0.07978781070094863 0.2973959900863824 -0.14134659398674365 0.30688498884662285 -0.15486783667455406 -0.1328137491626443 -0.06768078033372192
58.0 0.0623979777446625 0.0026954970148975205 -0.30299666040807516 0.14861535281422675 -0.3080296212319166 0.160137280400616 -0.08832850898971516 -0.01651853397087621
58.5 0.12330372127730316 -0.03980007199829588 0.2964031082759004 -0.1475152729704752 0.2933664044424653 -0.1709993147375997 -0.16115805564855853 0.02041656595897115
59.0 0.038888060379643645 -0.0686113911891228 -0.28913207363078214 0.15822336241458085 -0.28484160544183534 0.16967213921525648 -0.15778132691697638 -0.04294345406502579
59.5 0.04395836619378772 0.024707175362005517 0.2904428295997951 -0.17404794939974497 0.2858034487619693 -0.18197858544885745 -0.09932212463454887 0.010306383577019814
60.0 0.11102975042716687 -0.014983077998585146 -0.28292880849921725 0.17781298088838138 -0.26985949066132436 0.18065625918941766 -0.1570028484999705 0.05137819872701131
60.5 0.042941488819197154 -0.038693025348137206 0.279274921901057 -0.191022575096335 0.27172403308412163 -0.18505254873667537 -0.15057347403166885 -0.011900559893970626
61.0 0.0656911385492585 0.043488316569996854 -0.2676897774096652 0.19954614894950035 -0.265196858141683 0.1969673685527655 -0.07731530003735246 0.027822539031687098
61.5 0.13458967392556806 -0.011800425385402222 0.25724407732959426 -0.20377936110550493 0.2588674876205755 -0.19139436910762686 -0.12580324280336685 0.06423339308222167
62.0 0.06569584735807421 -0.0437405244695611 -0.24948912058334025 0.21392584502678433 -0.25863164710738573 0.20380345927078328 -0.11944892781438984 -0.007639536318824722
62.5 0.08603889811514782 0.022256036237058668 0.24487283528359502 -0.2169948624031127 0.24813615965636954 -0.20974512593711359 -0.05034405504631685 0.01245724582490004
63.0 0.13675863274191216 -0.04016227412284891 -0.23069434134559086 0.21183216822571915 -0.24825053295551333 0.20946352198809887 -0.10120747473130567 0.045483201741114
63.5 0.05480720070578896 -0.06621900110073763 0.22248207388436397 -0.22159672279610837 0.23931027140805283 -0.2250262127479022 -0.11192728892091057 -0.03208802123269667
64.0 0.06822891431859548 0.0016635251760238336 -0.22279082784763435 0.22666914806574637 -0.23487290662970814 0.22839199949653752 -0.051470526023923165 -0.01963982278143031
64.5 0.1070630241217784 -0.05219362524164757 0.21880361409585655 -0.2204884783321005 0.2319880473399106 -0.23732521390950306 -0.10559185120217564 0.017955317630425342
65.0 0.026339006044965283 -0.061533723615649634 -0.20889530455593208 0.22771421124917493 -0.21499416190204132 0.24552539080739832 -0.133583765615533 -0.048545453449689246
65.5 0.044879570719453636 0.014764577601435057 0.2074329889772484 -0.24108280090987871 0.21298579353630637 -0.24829560218603627 -0.07820828171267119 -0.034633242485548804
66.0 0.08928728372843873 -0.032526189029812275 -0.20506161885485494 0.23972013826594774 -0.20230637280746744 0.2569877118172112 -0.12834756101210223 0.015987053478484992
66.5 0.020148824787349452 -0.03111108271753558 0.19667290059574694 -0.2468349929033444 0.1891289785640614 -0.25582079730682294 -0.1591210609742996 -0.035321512158520425
67.0 0.05751914724491807 0.03997214232857267 -0.18754124883625725 0.25635512723077636 -0.18540080497709413 0.2638781120679537 -0.10005504064415453 -0.01913557242895702
67.5 0.10517739629807075 -0.0167305739960456 0.18005372793583993 -0.2602131978128184 0.17153584519717585 -0.26466920259965376 -0.13818231944738665 0.03983751896371233
68.0 0.042407959031126624 -0.023096134778281235 -0.1701755534589636 0.26761655991637573 -0.1654299863465339 0.26340223081968694 -0.1626881191998309 -0.006107688618670545
68.5 0.08246322562652111 0.029947055474604373 0.159296646475022 -0.27188924385908825 0.15690216576596488 -0.273217166381032 -0.09572595505810987 0.0035568207524853818
69.0 0.11520408625413611 -0.036165827673300545 -0.1493714240002927 0.2703027005575283 -0.14831158284496235 0.2652222192006755 -0.1154237998525858 0.057518650712726514
69.5 0.045052941970152215 -0.044296301491256206 0.13810654988064575 -0.27403429459862527 0.1437268181885679 -0.2681966853909927 -0.13745098101608483 0.00911846640197425
70.0 0.07390734116179114 0.0070816931378996795 -0.1314352436921454 0.27474323835109377 -0.13299409224769057 0.27376836747758254 -0.07275233521807319 0.0029323186538386943
70.5 0.09517395168646059 -0.05251800346458714 0.12609890846187352 -0.26944974092347734 0.13049872927241693 -0.267583554198845 -0.08970631144856946 0.0496431825522687
71.0 0.020910375031374308 -0.04544960730631513 -0.11572013042454271 0.2701689779122777 -0.12430220108489053 0.27667351354236985 -0.11783169854119385 -0.0037745146643231135
71.5 0.05022314707512056 0.013288548247032567 0.10985449678533718 -0.27596257825851517 0.11441484526838697 -0.27785663697184076 -0.06280447143847678 -0.021640988616296965
72.0 0.07346929262649292 -0.03706234279132246 -0.11129232811728634 0.27337693311618927 -0.11478281765924343 0.28076180125986844 -0.08328022092833944 0.022741155779663076
72.5 0.011303153165938419 -0.021046528916757675 0.10259429374630923 -0.2757828930257846 0.10188841224237663 -0.28709864262413964 -0.12572373616043794 -0.024750395322763692
73.0 0.05181332532247827 0.03607549488544355 -0.09289115905511228 0.28167230492727585 -0.09556614400437918 0.28444119875924456 -0.0796219562946298 -0.04174952324704373
73.5 0.07990210715616866 -0.01507176023531046 0.08957174116727475 -0.2853197025417403 0.08931973626598241 -0.29246393798828085 -0.10133530097305965 0.00766890965624831
74.0 0.028347005733598954 -0.0031892531197943736 -0.08096449400017366 0.28896733745487896 -0.07653374296588006 0.2910880306444821 -0.14822471661724018 -0.02419016962054546
74.5 0.07743379724267344 0.03836547981577188 0.06902451987067869 -0.2908849610538784 0.07089636353795387 -0.29715028050241843 -0.10773190575820978 -0.03778585131923322
75.0 0.09885210348900472 -0.024058243623250656 -0.059087742022992724 0.2904949174287076 -0.060010714293905545 0.2983054683992639 -0.117570997696318 0.01985130538127849
75.5 0.04261897380250073 -0.01829971409006644 0.04908489544575815 -0.29329583839788104 0.051545146476913446 -0.2928754643631525 -0.1579634997729877 -0.00063195904401304
76.0 0.0780895925140626 0.015746406821699734 -0.03842227089951192 0.29297475312970844 -0.041299365405714904 0.2965077149186334 -0.11281877689952002 -0.014676064897751964
76.5 0.08556913653124323 -0.04223190706252428 0.03232581896559745 -0.2884808286946131 0.03152348605260563 -0.29433218475928 -0.110001840560862 0.04060395303462658
77.0 0.024837621093982146 -0.02642341379986926 -0.021494411388945697 0.2844733793053659 -0.025998414917512175 0.28800449303188 -0.1462492458566075 0.020622040134183176
77.5 0.05880923601101098 0.014693544576035169 0.013535000102366045 -0.28453361085141715 0.014070305680421611 -0.2922059411434774 -0.09583949262204804 -0.00363698057621503
78.0 0.06403179957797317 -0.03294911803044385 -0.01387412904751928 0.282852959524761 -0.008978691131552545 0.2841001610954553 -0.08679542661874241 0.04159184190535698
78.5 0.011975016214233889 -0.006314043748432284 0.006772529107463278 -0.2769689400585889 0.005093543723964047 -0.2852116118102274 -0.12265841370156445 0.017819363118696616
79.0 0.05594998280254794 0.03580548875127407 0.003519376840699846 0.2779976100501201 0.00692830672535148 0.28266733901649693 -0.08325055063062144 -0.017746136704346445
79.5 0.06767695646398544 -0.010750511683029164 -0.003603457901469317 -0.2808708155122439 -0.006116493896736406 -0.2816128067082105 -0.07366429967330365 0.02028210923110153
80.0 0.02473753187950649 0.012868920137962139 0.008870508428747788 0.2790134652675075 0.015391340734623529 0.28343952901773795 -0.11712479723794089 -0.002246683239154583
80.5 0.0757976409640225 0.04429842155515941 -0.0201320793344019 -0.2793323263349712 -0.02268566208810954 -0.2778566059255098 -0.09014088096815275 -0.038922686559720476
81.0 0.08704635493791614 -0.009744228784837385 0.026105208501884945 0.28075852477539637 0.024214573439651835 0.27873044493299937 -0.08246609474770956 -0.0007059946025361118
81.5 0.044431184867686394 0.006117774959183205 -0.03493633871878969 -0.28218280567489107 -0.035389638684882624 -0.2773793219016668 -0.13233716525969658 -0.011592519727184914
82.0 0.08802656419039517 0.026150026066642525 0.045728347833902686 0.27908744209586284 0.040553878173901145 0.277951680014463 -0.11412225587008906 -0.04309461509324224
82.5 0.0847514975658124 -0.02878238007419889 -0.0533863810458159 -0.2761395661820451 -0.04787710085787927 -0.27940075902569167 -0.10476311377150255 0.00014484404137093403
83.0 0.03507493597686623 -0.007964480476453855 0.06413122008408513 0.27168539183133567 0.0578231510516637 0.2737252994738185 -0.14897426191172222 0.0011263611221349692
83.5 0.0703146515849682 0.016126871415732567 -0.07338226331203435 -0.2672744371919233 -0.06371116204138784 -0.2748848664067203 -0.1268130827787536 -0.02467416768876424
84.0 0.06629294483397127 -0.027290481138094628 0.07462328871685983 0.26207138034198296 0.07427446697847155 0.2735706940911185 -0.10756650509601312 0.017626239804746365
84.5 0.023129523013654205 0.004521535375783416 -0.08136388705466645 -0.2576690496987109 -0.07989048839615676 -0.26653133159380826 -0.14306363647202677 0.022769745008307675
85.0 0.06139164281331356 0.03178653965918421 0.08875331322291409 0.25180572464030754 0.08916245632030957 0.2659288288429267 -0.11711932154661368 -0.005939368489828394
85.5 0.06169891725377134 -0.005824252461141427 -0.08956798051430986 -0.2507735476318554 -0.09656658025648944 -0.2594177541860673 -0.09075658247190288 0.026713438518946954
86.0 0.030170626357875634 0.02310730691881333 0.09181197001239258 0.24582363488242884 0.10111658133529333 0.25554991399844257 -0.12108557314126848 0.029239664670848604
86.5 0.07731431880885314 0.043895208717804515 -0.10074058126315366 -0.2428707196337983 -0.11162258920754986 -0.2496024724869323 -0.10221798307800639 -0.008428638845304925
87.0 0.07884768044621812 0.0009891975800424958 0.10484802552554122 0.24357139439667527 0.11413648010043988 0.24314162834496156 -0.0709715215367146 0.013691577611788842
87.5 0.05210014918726514 0.02283014885110698 -0.10966158139458582 -0.24361342400866773 -0.11873482371693993 -0.2423882185070008 -0.10742514817123501 0.014759094302170138
88.0 0.09428549185191266 0.032131157859942576 0.11782513310039476 0.23866328231982042 0.124958351473625 0.23260397434176927 -0.09850862972207933 -0.026218785759647686
88.5 0.08666966826554007 -0.015044109082826485 -0.12700631273807247 -0.23992206025866475 -0.1266158021031433 -0.2312850133182066 -0.07866824954750055 -0.007585732432962525
89.0 0.05300480217098106 0.005927011319166551 0.13403478663483043 0.23464404059043115 0.13250337449015243 0.228793653856192 -0.11457844739761862 -0.0012883844823387643
89.5 0.08592538766288457 0.016156595593097442 -0.1421857738340848 -0.22592164833963296 -0.1363846086256497 -0.21957621372127914 -0.11614988751976366 -0.036495292980275686
90.0 0.07075982619375795 -0.021332825649414373 0.14782983661863025 0.22162757801759614 0.14044262991479284 0.22350621268230694 -0.09545220603218656 -0.015279719532338374
90.5 0.03718903367346285 0.008814916503692047 -0.15240985801523338 -0.21186474146151454 -0.14584112224445578 -0.21727131815925543 -0.1325105431710103 0.0012070346435695243
91.0 0.0710406537267451 0.025541550959136964 0.15876020463097687 0.20499335008224656 0.14947461069775098 0.21368325205826666 -0.13445821714136338 -0.026098186395717465
91.5 0.06290205868279594 -0.004558510481619303 -0.16102487959938608 -0.20400742429204197 -0.15717049165647415 -0.2126346891337919 -0.10847905424614156 -0.00361522215163538
92.0 0.041497356116674024 0.027056323112690954 0.16135201565975635 0.19546650026492643 0.16248231012779715 0.20718586182080806 -0.13592521566215507 0.019204166835974354
92.5 0.08182588707700321 0.03874747085310096 -0.16490844092338622 -0.1886069150980322 -0.16645372607952824 -0.20187510693792018 -0.13399298192963735 -0.005718354411530835
93.0 0.07867952993626912 0.00554438974229494 0.1673818012007775 0.18766022138845978 0.17522080417435196 0.19871118203468943 -0.10242077109550916 0.010969608501851889
93.5 0.061999822833639966 0.030419962072448774 -0.16894954258195982 -0.1845464858464484 -0.17815145373323288 -0.19024436809055523 -0.12010735054569027 0.030826332289037944
94.0 0.10057654974053694 0.033094278012846756 0.17246737946021753 0.17877656208974332 0.18532188282946727 0.1848445368987241 -0.11659165626365617 0.0017843164600485606
94.5 0.09066270018672672 -0.005516620297834581 -0.18106968438619367 -0.17822567867810538 -0.19177028703726715 -0.17780780551401418 -0.08557722402205836 0.00807540867047616
95.0 0.06744368434381565 0.013959081479992221 0.18516660529801177 0.1752946880657152 0.19308084324147853 0.17300574613736994 -0.10004371888681937 0.02347979725695631
95.5 0.09663807691238832 0.014748675572487343 -0.19081988230840494 -0.16843163846070647 -0.20039610554760956 -0.16397175026638494 -0.10648089392229738 -0.009219992435405694
96.0 0.0819785173061884 -0.0186632770814041 0.19648734532371742 0.16253859498770046 0.20055275307039258 0.15696128992766845 -0.08136348710294014 -0.010084866869213857
96.5 0.05108958765866541 0.0072326387977334605 -0.20306749101897645 -0.15638888883536153 -0.20284054106058524 -0.15227664743146022 -0.09932146560548927 0.005641560040876938
97.0 0.08287432215400435 0.016308925104806242 0.2063488510764208 0.1462485114623762 0.20385235492885015 0.14259459868137628 -0.11541785825151857 -0.02312261926553422
97.5 0.06771465647064981 -0.007962038499376808 -0.20862305856046015 -0.13925777254799046 -0.2059955192107881 -0.1399917939824152 -0.09474762116950311 -0.023069274376361183
98.0 0.05044860075161833 0.021968428228811055 0.20912398490977196 0.13210901661352492 0.20607633011604065 0.1343671450367085 -0.1148975362325261 -0.0006306068519129438
98.5 0.08702242479718984 0.030625810767167815 -0.20980807229698462 -0.12289249901716276 -0.20794944969719387 -0.1287520741214583 -0.13265778925740995 -0.020283599922804166
99.0 0.0800590152234558 0.0043082875915544504 0.21199119648623563 0.1199265238667072 0.2092772862526908 0.12603114974983795 -0.11204114916428307 -0.018358658788866375
99.5 0.06839953970078488 0.02870334997164142 -0.20917566419534606 -0.11482195073488898 -0.21359135715417393 -0.12080852485383405 -0.12356680047015017 0.010064826153597424
100.0 0.10278153629155516 0.02815147162775749 0.20948544488589935 0.10748085063796536 0.21536550723008593 0.11716755266228394 -0.13981357467941113 -0.0038537794149894073
100.5 0.09355426090650472 -0.0027939183233122076 -0.21444921836699105 -0.10584312463783159 -0.21790036029551993 -0.11198098125303949 -0.1138607607526252 -0.0025900318346621268
101.0 0.07597389504124481 0.015109203619292978 0.21523815296846635 0.1031753445768082 0.22327072880529983 0.10600935348618018 -0.11579708563140584 0.024306358984399076
101.5 0.10563770555652847 0.01170830194943142 -0.21841098042397472 -0.09778107284354992 -0.22500871087814606 -0.10122424802366338 -0.1287085711641094 0.010094923014291358
102.0 0.08929844117000153 -0.01795113877618242 0.221281315265252 0.09220144392473482 0.22942536590383086 0.09223153617729388 -0.10219951933860494 0.0032540977204569667
102.5 0.06888237911240136 0.00350687009385383 -0.2256155074953254 -0.08567319145339382 -0.23029131162022407 -0.08698017850175921 -0.09946901911582086 0.024486365841612578
103.0 0.0904115622507572 0.00566196453066678 0.22912945057411477 0.0799705519217827 0.23348678114675236 0.08013246549712033 -0.11345352497207807 0.006706591643939013
103.5 0.07584358478777167 -0.015358472147355858 -0.2333631141076164 -0.07162129150070488 -0.23578859431969615 -0.07029510745842835 -0.0898775963837882 -0.007686710483296626
104.0 0.058495240264109606 0.012296693417591821 0.23291040373964908 0.06267317733238885 0.23539352550792178 0.06410744587142533 -0.09128384522051983 0.009171269557761997
104.5 0.08603609431827046 0.018036325819787282 -0.2308961896342226 -0.05349182291513512 -0.23547986226184872 -0.05548545193838568 -0.1115641856457149 -0.0064471332151987215
105.0 0.07929282581587412 -0.0014748091078107626 0.2336953517419612 0.047338306354544175 0.23423741187021338 0.047736991653019784 -0.09747994641583606 -0.02271238543470503
105.5 0.07007146821881675 0.022036582642488336 -0.23234805153601487 -0.04161828638024602 -0.23316811064859275 -0.043269737241044014 -0.09997603971172041 -0.0038745606054701506
106.0 0.10157636357991343 0.020920815577669557 0.22597575244306495 0.03517663492035718 0.23277108679841252 0.03525317926614939 -0.12409360067763409 -0.011383648704005126
106.5 0.09276556500674256 -0.004380291239574547 -0.2267494784317262 -0.029936824039359357 -0.2301302039707375 -0.030195321913451676 -0.11550061811110238 -0.02417065589819201
107.0 0.08200177958828088 0.012559444666512473 0.22655918924433394 0.027553033296178694 0.23150140996056603 0.02573912136578601 -0.11204968919311183 -0.0005495321912956419
107.5 0.10822527438854795 0.007539449410266656 -0.22322794833608123 -0.02363583417602245 -0.2294223922267233 -0.021135641501573182 -0.1364211232481924 -0.0006137276290770834
108.0 0.092186533367244 -0.01888951142927761 0.2260802694142363 0.018778982054548803 0.22825923946352894 0.01693210207197714 -0.1254649430660452 -0.011257194613855607
108.5 0.0777971010134957 -0.0014517471286499613 -0.22761058401905798 -0.014429990366828153 -0.23020358889466536 -0.012123600558260287 -0.1169143764905571 0.01280580074857082
109.0 0.09695728654934402 -0.0025164701196469506 0.22939694504859492 0.009258783964228797 0.22591460907204802 0.007840232425706379 -0.13064644667999964 0.01516847763681535
109.5 0.07969054170921293 -0.02265603418103374 -0.22959058940140142 -0.002378712338718261 -0.23110691207491488 -0.0034786004569186176 -0.11859319239474087 0.0008378149163032091
110.0 0.06389893443528619 0.0014734460102388738 0.23352986449254134 -0.005910658687321615 0.23160812108216267 -0.0037397965035787283 -0.10061724081118302 0.018310234996522054
110.5 0.085201272638175 0.00591791622722841 -0.2326756696689419 0.012887789627693137 -0.23200985859228782 0.008115358399504601 -0.1146473541067922 0.01843380411964068
111.0 0.07764879426406761 -0.010515465238599704 0.23063905707432272 -0.0210708654351509 0.23181111993682493 -0.016724605235236736 -0.10510481298529915 -0.0018995499886825542
111.5 0.06657252408407442 0.013033370785973532 -0.225067768086162 0.028299206948250194 -0.2298473586239401 0.0233280641724938 -0.08831320128090182 0.008303798028599797
112.0 0.09390986401915191 0.013321702751598765 0.2238018848166562 -0.03519279437826059 0.23050191483091748 -0.030420332780293 -0.1070833603424793 0.008185920133881251
112.5 0.08846276028652549 -0.007825580804257685 -0.2201869535175512 0.04119276773628526 -0.2288948389107938 0.03865261733746201 -0.10338826291601984 -0.015127590937334645
113.0 0.07839040185261006 0.008508059626795022 0.21689673901732365 -0.044053714040647486 0.22556329922085214 -0.04395672310339028 -0.09127006727087358 -0.006936913749905677
113.5 0.10425420302357827 0.00392926921646371 -0.212872724768722 0.04723687119815807 -0.2233512364164348 0.05042502579418349 -0.11274882620716561 -0.0025724376069231982
114.0 0.09074592320254996 -0.020284655593351124 0.21025822260563987 -0.05214738972227245 0.2203688971175782 -0.057741565226455925 -0.1173424032502443 -0.021272157630565492
114.5 0.07673959105306358 -0.005064489918226531 -0.21096815464378482 0.055575820513759956 -0.21615941721720885 0.06203509932630552 -0.10701757848250566 -0.011061387615755435
115.0 0.09578661573320281 -0.00774531339188188 0.20847347471510458 -0.05773590202980584 0.21107440788977744 -0.06797879993544009 -0.12371824709611288 0.001342245193286411
115.5 0.08022587055207145 -0.02793035091998927 -0.20815741137557772 0.06332005384684469 -0.20775897716522906 0.0711932537827239 -0.13043582418147656 -0.013287878481964555
116.0 0.0653031179211095 -0.006928016933928955 0.2084290878256809 -0.06884472964432603 0.2071703789396081 -0.07523087969939704 -0.11272843133112574 -0.0012969818251142675
116.5 0.08222409282161994 -0.0037586625165077054 -0.2078411401741492 0.07376601462814085 -0.20090923459743457 0.07886368599948923 -0.12476294186635603 0.014298405583842285
117.0 0.0718030346705102 -0.018853720911438446 0.2046522843652018 -0.08041822397333918 0.199625797555188 -0.08183105527936542 -0.1275347267977211 0.0007764290700613537
117.5 0.06243713301752621 0.005044421231399299 -0.2012435806398312 0.08803088865933731 -0.19924399537043921 0.08735728750829692 -0.10635075488122846 0.008118456771889302
118.0 0.08843764285568445 0.007364309572969171 0.19881980043967176 -0.0952058477690847 0.19568504776252157 -0.08874918686331762 -0.1129809627320459 0.02241768798074158
118.5 0.07958135891997643 -0.011377206757906934 -0.19329204358679353 0.10119416770117563 -0.19682302072516222 0.0947651032649696 -0.11517764462596373 0.00534667220301111
119.0 0.07308770621508816 0.006626089613666709 0.19016712861463436 -0.1071247549028213 0.1934016381647269 -0.10002236759539118 -0.0938077647656818 0.004701915086478078
119.5 0.09822127596743625 0.0026016804924539083 -0.1840284829560846 0.10876128896083019 -0.191445252678332 0.10367595781526416 -0.10122414951997567 0.016701076005763593
120.0 0.08838133545711548 -0.021515413360202674 0.1786535391529319 -0.11321907111906802 0.1880838686855895 -0.10995593521972699 -0.10960073783586036 -0.0033461372187122917
120.5 0.07385205223311204 -0.0054419116145453 -0.17477283022498863 0.11545098811386584 -0.18480708002231142 0.11465261912044061 -0.0910856395964198 -0.008619488524381899
121.0 0.09325499900073121 -0.008882190939710946 0.17121418021813473 -0.11587267761039698 0.18379229579332806 -0.12032044980499385 -0.10066615596859096 0.004482401214294111
121.5 0.07848381825219893 -0.030395073893086964 -0.16732016566190822 0.11791669179094959 -0.17766244460612945 0.12633042445205722 -0.1153031855757022 -0.012892778227469186
122.0 0.0626335193660007 -0.009766540612295779 0.16786299511400307 -0.12345759757306876 0.17303106645739053 -0.13030406441110837 -0.10109859718419272 -0.01766765636267723
122.5 0.08124351998892061 -0.00845114151043251 -0.16653222099689033 0.12540033457444333 -0.16824356548262234 0.13544961630881402 -0.11185546861329766 0.0007780008347465714
123.0 0.06557799301912945 -0.024330694183636994 0.16373266700619374 -0.13011810546942323 0.16259533395383066 -0.13992283920114224 -0.12711592477131303 -0.009999571728059682
123.5 0.05486034329692793 3.624004390790869e-06 -0.1613616979168089 0.13631212263222542 -0.1592129817725746 0.14395544384089007 -0.11350959259834392 -0.013757576677392686
124.0 0.08078160000075829 0.0027500610586715093 0.15783486399919922 -0.14136525881430342 0.15430138847597508 -0.14750774590177723 -0.1162892400162939 0.009609622867079635
124.5 0.07172433041384256 -0.014846712950629516 -0.15338062363776328 0.14717572548227031 -0.14666389178402572 0.14640532618474672 -0.13340372333236805 0.0027386255021500734
125.0 0.0644833748287053 0.007380241338502608 0.14701384775549894 -0.14982777568877442 0.1445421567396412 -0.15183245436169332 -0.11372442675359694 -0.002704983387138956
