! Created with skrf 2.1.0 (http://scikit-rf.org).
# GHz S RI R 50.0 
!freq ReS11 ImS11 ReS21 ImS21 ReS12 ImS12 ReS22 ImS22
1.0 0.2335770979444328 -0.3576479971773027 0.7364070862040412 -0.22679235009758303 0.7677865890996329 -0.32555809137376396 -0.2135441318750968 -0.2543053546899441
1.5 -0.06682705456074138 -0.16199583142701246 -0.7398046496797851 0.3738239266271256 -0.7425390326701788 0.36753115065676817 -0.04998453437083948 -0.22530292891028922
2.0 0.1280323732765273 -0.07518631465168961 0.7014271410971915 -0.4084361651417089 0.6595045814661312 -0.4683935393028005 -0.225314136767393 0.05300060812443419
2.5 -0.01318768450866307 -0.21160590684794903 -0.6152538958194566 0.4649651219407445 -0.551089878487815 0.4791644393363939 -0.3787937149263543 -0.027025326633226807
3.0 -0.08871696186047222 0.06661368584254335 0.5241387539512153 -0.5619264594923914 0.5295662256853094 -0.5686617392201412 -0.17099266181652217 -0.022107927926741062
3.5 0.18172288527863878 0.03920370775155479 -0.4473511649995944 0.6014864707763345 -0.42814686473644703 0.5912333701567659 -0.11022569945697609 0.22799679382997548
4.0 0.07651779887175521 -0.13882894739419813 0.3681243978041872 -0.6384719892123215 0.3839867166210777 -0.602666150803789 -0.20934157315589738 0.16134380904806936
4.5 0.03752751199878982 -0.0007347826956462197 -0.2826576481015203 0.6828059164219292 -0.2822796748872146 0.6800643140545864 -0.008876692410845563 0.013130464808069637
5.0 0.1658676046055399 -0.10993046065787045 0.2167359097358403 -0.6696844411275824 0.21952783098580392 -0.6623852791225813 0.09343835673918124 0.10312843500265366
5.5 -0.03659882186581137 -0.2099181032383081 -0.12283327233696757 0.6677861049384802 -0.15241507243811925 0.695141645988324 -0.044002684924595026 0.037365482985140024
6.0 -0.10584211416183105 -0.023008160980071014 0.025227625481424404 -0.6831797758315592 0.0384745163345706 -0.6867208561173782 -0.043115509076548465 -0.15503298892824643
6.5 -0.029071885930596904 -0.03831930020660537 0.022674607679565723 0.6838656775480528 0.00716929226611742 0.6831331349089755 -0.0008145102126862288 -0.11166747266808523
7.0 -0.13180581804804153 -0.016999805005549002 -0.08098424611109481 -0.6518175743136901 -0.09598360036230733 -0.6741631455217684 -0.15613318917537414 -0.0563646742835987
7.5 -0.08187179680791891 0.1560753509412627 0.1703447136188516 0.6162712145810587 0.16394491730533314 0.6321912093370252 -0.22530856444670852 -0.1060172510814949
8.0 0.05305109521054738 0.1407445906648584 -0.2341185683451891 -0.6014710876330644 -0.22517121996279826 -0.6264470100335517 -0.17458189984000627 -0.05202568687122766
8.5 0.04553451390146477 0.10033923798049198 0.28359700497916357 0.5784001268033022 0.2959474378396831 0.5847518169092699 -0.18822304003259804 0.06650064615847721
9.0 0.09018708214956518 0.13363790898724295 -0.33821397571263306 -0.5317380231523301 -0.34516954172921005 -0.5424410762530015 -0.20350899877496975 0.08141642323212489
9.5 0.16767540656282387 0.06633458379105464 0.3933513253464753 0.48491008519896334 0.4123627254538282 0.5039314368719054 -0.12159666846283652 0.06228222163941204
10.0 0.11930043832792572 -0.02221695761386287 -0.4483203355939944 -0.4405874991614745 -0.4618311434437898 -0.4413358446357817 -0.03652635022682127 0.08158004866590354
10.5 0.053090701774099726 0.015973678785562273 0.49381315850673513 0.386686407169777 0.49619291240696295 0.3901928714273507 -0.03665148646109651 0.07848522170290681
11.0 0.0920598528660965 0.0411064975344547 -0.5272550601891097 -0.3200599677087899 -0.5439530381989289 -0.31844917461139843 -0.054210309257134666 -0.018919102208851967
11.5 0.059294885807059924 -0.000863527840943105 0.5571897783747116 0.2551871222047862 0.5550143326171123 0.24198160730031765 -0.014504332115617677 -0.09062198348705403
12.0 0.017186385328043917 0.09552275947157753 -0.5691645883683669 -0.18826318337988507 -0.5741344377718293 -0.19383610187021794 -0.042633118144903975 -0.04593080869203215
12.5 0.15430934766507023 0.13062222226934225 0.5608865172674437 0.10974062279805664 0.5755676784517537 0.11073955798379662 -0.17580292061072014 -0.06843606517707186
13.0 0.17300426655152282 0.014200257744223867 -0.5722184981029574 -0.04726521829191128 -0.564328151346542 -0.05920398454366591 -0.16831591716008015 -0.12751126084629183
13.5 0.12463207770106843 0.06707396011107167 0.5717982889915005 0.00648100018481491 0.5769490716454984 0.005142767324583299 -0.1304783815603868 -0.011851091555060827
14.0 0.25578800229378923 0.039080066663845545 -0.5358595267530204 0.04511541224241993 -0.5443729106806743 0.05211724310064611 -0.2401975327643719 0.06686561909224911
14.5 0.1870408000015745 -0.1389051131900841 0.5236273488067679 -0.1101491331781147 0.546490180875458 -0.09466556968466394 -0.21323728884678156 -0.012836299013310246
15.0 0.07105653411724545 -0.05194030476230611 -0.5355977916430085 0.16694691325252609 -0.5360730306169652 0.16710378903818476 -0.06119389689058074 0.0687791571720162
15.5 0.1812569777412772 -0.05891969767815951 0.5075582564398187 -0.18963692352558628 0.5021280615803421 -0.1931063595797457 -0.12281254774460634 0.15617611676730603
16.0 0.05051422312722103 -0.17732629441971573 -0.4698441412555504 0.24224030053448764 -0.492531051224361 0.26225783964060484 -0.12811515373445878 0.009101522282705901
16.5 -0.038231442188060155 0.008942275571960086 0.44624030308268336 -0.31704763214032666 0.444501277837521 -0.3180701370095822 0.03530851927464388 -0.023636847942690116
17.0 0.1323479407479734 0.002584140230761772 -0.41493692214252154 0.3527747050454705 -0.4304101049770704 0.340314794879763 -0.029285923248619342 0.07862356957118093
17.5 0.023594332199193827 -0.09395992637972231 0.374823385720979 -0.38900378431381144 0.36430521272395183 -0.40757317286399913 -0.15333941438603493 -0.07088851147120889
18.0 0.023270139581902265 0.0781446924112725 -0.317282999738364 0.4311937312111303 -0.3189314831887008 0.42550735286023167 -0.041323027909092376 -0.13872757570701602
18.5 0.1974555475187768 -0.020443023958615948 0.2634984601939007 -0.44573186017427513 0.28600119321923123 -0.4691054241414065 -0.08500094044062309 0.019187050434430742
19.0 0.03624159635992984 -0.13627676042543554 -0.20574050679055012 0.46954705302089933 -0.20487497206743796 0.4695816642664827 -0.25065278844230504 -0.024375027304505786
19.5 0.024741525290030583 0.019298062846628036 0.153027912644365 -0.5007969688878458 0.17275132158627612 -0.4932653434104075 -0.14861933282426687 -0.09558311991071301
20.0 0.1290469600529807 -0.09221996829786494 -0.12350970493842665 0.48667358788555404 -0.10507261595546587 0.5138715206345286 -0.09666320524012495 0.08581156113232982
20.5 -0.0686707045716217 -0.12205282106870291 0.05944729071928659 -0.479234919455273 0.06453829540117886 -0.49237933610119966 -0.22097245472404511 0.09257968052698734
21.0 -0.036730955746551 0.076363894092676 0.012701800721440453 0.4931011088392635 -0.002461695436236777 0.5165303660868689 -0.12141507906066704 -0.021646055959698894
21.5 0.061140156340907796 -0.018938704559746264 -0.03576738444305333 -0.49749923483137876 -0.05268384415236693 -0.4935287808621912 0.002628455459313103 0.0791660712418438
22.0 -0.07898873132217583 0.004279613571431629 0.07046899421515904 0.4769990026146843 0.08216806230274522 0.4858628285610043 -0.10831917570021947 0.09579040735709575
22.5 0.038203924514965765 0.1566282866781427 -0.13955571710905557 -0.4514658880755352 -0.15833490924940716 -0.4672867023372251 -0.08483436417316002 -0.07047559814381008
23.0 0.13008388264639356 0.025034016551177735 0.18444293261186592 0.45107381976338895 0.18381531411013505 0.44416094961747754 0.017147198884059 -0.04061607256902264
23.5 0.01925573082795136 0.03100662640754195 -0.21947770705930883 -0.4365391178785961 -0.22916259875363704 -0.4335487801869303 -0.0972420627516655 0.010667680119048164
24.0 0.1178745577437046 0.0981531067053673 0.2631264518480812 0.398287700185642 0.2719239038193479 0.3819398576164028 -0.16304658579656228 -0.09881252565919725
24.5 0.13646819946010663 -0.038945504272174046 -0.31041916780791834 -0.37033237738391206 -0.2986761429763891 -0.3680661025504846 -0.0890296091132292 -0.08201604789353217
25.0 0.012681842359438793 -0.01034297282108448 0.35022640570602 0.3354622110649459 0.34241909391668285 0.3318810329058054 -0.15226598264769273 0.023288147661513155
25.5 0.07542188736605739 0.06221855107136684 -0.3833362300917292 -0.28546223518057917 -0.3609449668572289 -0.28997117077199036 -0.21304918019491798 -0.009148750284860431
26.0 0.0811820490159509 -0.006181685121732643 0.4077198678192639 0.24435386073920123 0.40099540777806686 0.2620200370069006 -0.13465606433745372 -0.007991938134313295
26.5 0.019339270907046995 0.048814157782368375 -0.42260263488866845 -0.19614403010183726 -0.4220353952953012 -0.2115527034146078 -0.11024719592165136 0.0765694151329026
27.0 0.1043073042537725 0.0993217674355523 0.4302114896073101 0.14136823621536376 0.4364882501375858 0.17212556845163848 -0.13718146451342159 0.06308347072032396
27.5 0.14200567888170107 0.032219902686371094 -0.4387045170465111 -0.09554608353349407 -0.46293335166911903 -0.11886000343904439 -0.0846147681393898 0.012033852809350144
28.0 0.1148173127778981 0.02955044835622972 0.4434929347879456 0.05956538578356739 0.46408688345129817 0.06701150141654871 -0.040637972199553056 0.018447679462490315
28.5 0.1586295121136996 0.03606878817680503 -0.4372180751737014 -0.017860472551221158 -0.47015816977295266 -0.018234376357019577 -0.06930021169379103 0.010611343674595944
29.0 0.16969423361191324 -0.03718983117835702 0.43267137330793143 -0.0257842447979974 0.4621293999263339 -0.04346637400334056 -0.09779701181406367 -0.04193323048903961
29.5 0.10624716562250433 -0.06837777137645333 -0.43002544190304853 0.06926459527773672 -0.4488033647450736 0.08770495245589022 -0.09089710854777942 -0.06632430090411848
30.0 0.09143507049568371 -0.028736763052209416 0.42924004502565255 -0.11073866667208475 0.43570913935867056 -0.13228817161866194 -0.10522830061490787 -0.03178791406928376
30.5 0.1098385343133727 -0.056937183926385256 -0.41469813183903426 0.15120900558360514 -0.40459018164974947 0.17585603463694544 -0.16953949982009375 -0.011663361120327396
31.0 0.03649368304217999 -0.06573169280315842 0.3939565792217516 -0.19504816676262354 0.38234940475671786 -0.20796992323920374 -0.17144834032053183 -0.035711869610487564
31.5 0.040193407831454225 0.02589427030260341 -0.3707776306065953 0.24327706920490377 -0.35973387290865855 0.24988620786919535 -0.1216317956013226 0.013529070825364036
32.0 0.11796680872441437 -0.006146192045505964 0.33739922189859206 -0.27916679831350594 0.324115876290055 -0.2714101566783651 -0.1479983598264227 0.07728512054460317
32.5 0.05537581005287831 -0.04411720900409823 -0.30315864576386536 0.3139922967251961 -0.30163412964970604 0.3010371219363506 -0.1563085698023016 0.0253967905770231
33.0 0.07854687809024757 0.03487435985308544 0.26320663155571355 -0.34166614462214806 0.26158519429128674 -0.3374859454120325 -0.05494945204733151 0.014890307025605906
33.5 0.15097943327957034 -0.0480359939266885 -0.22223065749961748 0.35292886117035693 -0.23314771906797976 0.343483191305668 -0.0596930442558423 0.08086108728085055
34.0 0.03164885829098602 -0.09671975789844849 0.17532531345307276 -0.3732999035702286 0.1957779819963577 -0.3765217248527429 -0.11995440899193201 0.0028943554045946776
34.5 0.03769455933764763 0.008899640964217278 -0.1364874257621821 0.3927154016793421 -0.14628915936091402 0.387484511882925 -0.04299104557924645 -0.07036480425153221
35.0 0.09405149357066886 -0.07242808950578261 0.11088716087274765 -0.39114237747652736 0.12399909385628516 -0.403042814214547 -0.04187308547833361 0.013897482702278481
35.5 -0.045092178524600554 -0.06600029640056584 -0.06608970810269568 0.3877753184139295 -0.06599825448452819 0.40972105209035137 -0.1651580804565144 -0.02089933866449512
36.0 0.00985643227688474 0.07834500287224824 0.012776249119601733 -0.39797986429340315 0.028821215068433315 -0.40592300760054445 -0.12370192782638 -0.10303766351199417
36.5 0.08140283094355902 -0.017024149124640023 0.009128493948955024 0.4043856018370799 0.012637271738417591 0.4229199357399589 -0.08331408808446367 0.008823206232244979
37.0 -0.03518673866559399 0.009639524718611254 -0.04090372510151142 -0.39553195964628246 -0.057452040737082766 -0.3968144105885894 -0.20179584664149175 0.042874380837674454
37.5 0.07842499000434727 0.1193394588137849 0.09413311488318973 0.38074917265533714 0.0950096417690949 0.39848476483270284 -0.16460839771645658 -0.048693842131232984
38.0 0.13132064339805669 -0.0223823389762276 -0.1330061220285037 -0.3779680932372442 -0.14651192661625004 -0.3853048221554123 -0.057420683414190425 0.04085311371053645
38.5 0.008086983973807266 0.006257665016751406 0.1670512818317411 0.3671963579567624 0.16866341583151076 0.3581415533048957 -0.1438220438343218 0.09661843214806916
39.0 0.11338662601458378 0.07556069516888007 -0.2072323830542837 -0.33833878260625844 -0.2187884805734805 -0.34332136198144786 -0.13126789004735542 -0.023554466238411002
39.5 0.1064772363455091 -0.06580596987004125 0.2394495684156078 0.31667976297248146 0.24617540716436048 0.3067010269488733 -0.008807499849979477 -0.003871984159129837
40.0 -0.02073944907523046 0.010104440292964907 -0.27115002033750146 -0.28262703956413365 -0.26661837981289876 -0.2897710046509305 -0.08140804384789438 0.0611995158602812
40.5 0.09463431550390974 0.08032104150973698 0.29975471157592454 0.2422538022448588 0.30275726450415713 0.24344455304502022 -0.13820809761622999 -0.05818386283568841
41.0 0.08025530671521064 -0.028445774217503165 -0.32110332867900754 -0.22039067553128291 -0.3136363605431501 -0.2161335595578201 -0.04542245741619849 -0.07348470933465415
41.5 0.007053146519796153 0.06665089529586234 0.32832806075239174 0.18288627112506503 0.3369987472179179 0.18944572457044356 -0.10273405855503878 0.019817923573405328
42.0 0.14568441981784014 0.08958799283708985 -0.33571002761843016 -0.13702854464618297 -0.3399546384607941 -0.14148952112526716 -0.19123334224237282 -0.038124206834471965
42.5 0.12298568757860825 -0.023862650092786056 0.35629660638512306 0.10685116643239209 0.35794807687149977 0.12045150174870073 -0.11920904647906047 -0.06306513357100528
43.0 0.07406806242828763 0.04567621140984758 -0.3635453615763558 -0.08321358102346532 -0.37009313168815333 -0.08168287805513415 -0.11967197822731758 0.046800963756084224
43.5 0.17127943339124885 0.02485297411706709 0.35655530830207144 0.04605173615865513 0.3620847190803169 0.04744420007252629 -0.1851376428816481 0.03251672114570133
44.0 0.11535455667179247 -0.07342123707803393 -0.364812418671517 -0.005699388629057658 -0.3797991388038378 -0.011243572027725728 -0.12063070930399808 -0.01032450271298747
44.5 0.060846692262223535 -0.006102809891654624 0.372320213655565 -0.028887163934126197 0.3750724110399579 -0.0310273354704668 -0.07249837182792047 0.05459689659016583
45.0 0.12157449487026922 -0.013596508259705263 -0.36367808173122745 0.06134020750069997 -0.368106321771255 0.060815973472706966 -0.118041950034139 0.049668719690833196
45.5 0.0675862786778332 -0.060361763830834296 0.3574244185817881 -0.10341283504903903 0.36332733178424353 -0.10975523224565387 -0.09224399449898509 -0.01891064425750346
46.0 0.041858616521348764 0.012640229431814714 -0.3462393281869919 0.14534776465150173 -0.3464130825819616 0.14331987848370292 -0.05043449612426076 -0.007433402361997757
46.5 0.10523657758866997 0.014162512883607288 0.3235584651453915 -0.18082797166194553 0.3321211927643038 -0.17937327541724646 -0.09503424611798283 0.0007589987202082159
47.0 0.09024921873387388 -0.0275272201158459 -0.3006327720603258 0.21418347300739046 -0.3041559788369069 0.21676958951473366 -0.12226848917979324 -0.03970903932460707
47.5 0.0736149016376098 0.0002669404579496332 0.273405995884439 -0.24432958552022904 0.27801114702098834 -0.24407457496903034 -0.11021330565269226 -0.04259966373671403
48.0 0.11531207260937833 -0.009173438363186976 -0.24260261870318103 0.2642268777171251 -0.2498879195886483 0.2707896791076487 -0.12356997210193227 -0.008239437618379026
48.5 0.09715864259537979 -0.06096436582387274 0.21049647786890763 -0.28280049743963964 0.21326336375029492 -0.2908925476138214 -0.15341895043668682 0.0063258694608615725
49.0 0.0464841135625834 -0.04700319444852716 -0.17884267097262962 0.3041313051060782 -0.18401601017783736 0.3083958399034167 -0.14997667114413082 -0.0011608492944901723
49.5 0.06100823241682769 -0.017853454278502198 0.1491556638401322 -0.31371767855999205 0.1492936257546163 -0.32630954398802725 -0.11130158365217017 0.019443296191807964
50.0 0.05523917673559623 -0.05390357253327337 -0.12117445933648376 0.32318198424505395 -0.11524443154715142 0.3282432474365944 -0.10960716503880939 0.053918582766585336
50.5 -0.0034031975872006034 -0.017524414882522012 0.08631218497251436 -0.32974581495224303 0.0831155841194503 -0.33979744449664906 -0.12404533930008317 0.02522218163696564
51.0 0.0435642903037294 0.04156442249594611 -0.048985689178837236 0.33929767733674965 -0.0440184326199542 0.3450449324623977 -0.07105022419510953 -0.008676384361476011
51.5 0.06780095614660493 -0.010702531938818826 0.021950559967133954 -0.3469089708562693 0.015819672919817854 -0.34367875320693586 -0.056081141919846436 0.027779641440053272
52.0 0.01255329257611934 0.016818580954724723 0.01224005291582845 0.34482474078076103 0.01977147282046874 0.34381577459791723 -0.11526388026119869 1.874544551753825e-05
52.5 0.08989166969942418 0.06343016214385507 -0.0532618352137628 -0.33752678986478807 -0.056269250591063275 -0.33322864523294804 -0.09357406609482942 -0.0648947275757111
53.0 0.10438369140086964 -0.031274946193060274 0.08719167832442706 0.33534038470561234 0.07989563630798895 0.33336543908623956 -0.06821864994151931 -0.014552664748641399
53.5 0.020944275555517127 0.00011931511223179923 -0.12423095450242072 -0.3225572785569312 -0.11930826080734029 -0.31761332682896704 -0.15436668352819108 0.006645604973115569
54.0 0.09398565325110446 0.04242571988640884 0.1589189534904948 0.3017881964507391 0.14447204492061025 0.30088664513142793 -0.15345098088995746 -0.059302545084352905
54.5 0.07780096345750448 -0.05244363562832192 -0.18289498570199503 -0.28299094117157375 -0.18034422165836123 -0.29490862498447723 -0.08983255055551125 -0.0032523614005127753
55.0 -0.010179437013764054 0.02405018273563476 0.20969261872208247 0.25497479982960486 0.20565512957950707 0.26409560524055176 -0.15269694447261178 0.06097421475846897
55.5 0.09781476624983575 0.07090381051750004 -0.2372065002380042 -0.22619462408392593 -0.22940468462097682 -0.24603769853789764 -0.1616112268131545 -0.015322605641952295
56.0 0.07821724978573123 -0.025127124335483034 0.253877073638297 0.20778491744942337 0.26364591771369883 0.2168227125070334 -0.056923550205340366 0.0035188644055923115
56.5 0.019500924072493382 0.06472629673913795 -0.2618653392442338 -0.18130374227442464 -0.27150869963278934 -0.19088436707884562 -0.0965442767719591 0.07585033085783874
57.0 0.14968523056214092 0.06907729093906584 0.2733873169666346 0.14388298891821935 0.2970553780800096 0.15720742229240514 -0.13942461720316604 -0.011714324772564884
57.5 0.10713133158409371 -0.041594797853095174 -0.2946857072097296 -0.12166141410304149 -0.30680366956463584 -0.11935968005079584 -0.045914934784837345 -0.043952256300840535
58.0 0.05855682491778143 0.04623601489945939 0.3038676406538462 0.10238903396016052 0.314365675841167 0.09773864512970298 -0.0706516977902294 0.0371228579647259
58.5 0.16581504384753612 0.017599115579126044 -0.2997423116168588 -0.06840036184092863 -0.32124670055920457 -0.05326079454766205 -0.15994730777379915 -0.02630433207874388
59.0 0.0823212772045381 -0.07698966972644995 0.3142366801281264 0.03540340129111247 0.3135445324009794 0.02652009977151272 -0.09181186303935815 -0.07481456107826524
59.5 0.044242257344220465 0.029222738816032063 -0.32405139718649933 -0.004411478092131002 -0.32309291687109776 0.004322196834325038 -0.09281015526166056 0.02049925677183586
60.0 0.13478703407562656 -0.002213765915053417 0.3168626986571791 -0.026319532294156303 0.3056797941257622 -0.03670673523842017 -0.1854010045585969 0.007933734853152517
60.5 0.05066467999911876 -0.057400261724635346 -0.31501719649171694 0.061255102730203195 -0.30517748133026945 0.06008928975617098 -0.1329818902766624 -0.04564099840945991
61.0 0.04989891783600211 0.052457125431247274 0.30513728094336445 -0.09716083759904812 0.29953470662560594 -0.0957074583550658 -0.0884015606684273 0.03947936032862306
61.5 0.14129806519698912 0.002396333355553951 -0.2849677468743748 0.12730471605875773 -0.2803816719820007 0.11334835506677124 -0.1553408988983754 0.05285039535738805
62.0 0.06742430750752179 -0.04379256202909377 0.27181734962176135 -0.15892640192742108 0.2765555231476718 -0.1489192343896823 -0.12075755828427179 -0.015423885887253045
62.5 0.08234595784970594 0.031120029689361027 -0.25163206458862236 0.17902960960517275 -0.25740849094838797 0.1744072993989862 -0.05463882415017772 0.022708123883019064
63.0 0.1382239981555618 -0.03481503063485808 0.22677283387436822 -0.1973858385120679 0.24474372735698832 -0.19384240248370072 -0.10624923555281919 0.04325012815414035
63.5 0.053274818070942455 -0.06384671601923723 -0.20430171318637733 0.22098913562043523 -0.21823853516636213 0.22503655584288948 -0.11170133585134852 -0.029552210837235412
64.0 0.060011173265648615 0.00021486130971236616 0.18414771741880945 -0.23972036273959882 0.19541653832868694 -0.24400537205182893 -0.06398078267046796 -0.025503267732442835
64.5 0.08946109172328656 -0.041554873711435146 -0.16400883706822744 0.2504143119202116 -0.17198392852958666 0.2648876243242909 -0.1049409434368445 0.006373300983004201
65.0 0.022634334304305125 -0.03956601155010682 0.13694525230423565 -0.2647794707796772 0.13660793103017418 -0.27934634865514874 -0.139269511327645 -0.028606900987060986
65.5 0.036429048163601305 0.020869100070328248 -0.10923760689503997 0.2825993159373483 -0.11076208005376668 0.2909873676197143 -0.11477329060395478 -0.0316730038654282
66.0 0.07276282166679594 -5.912428826247606e-06 0.08470202409399441 -0.2932389894674453 0.0770685502504212 -0.3019391102611718 -0.12171372723674082 0.009961514050651536
66.5 0.04283091665314382 -0.005302994563544744 -0.053068940650145204 0.29758640163287153 -0.044423020351377025 0.30271903794754 -0.14540282508405777 0.014096985973229306
67.0 0.05806335514568133 0.029561789159762257 0.018760634840369324 -0.30365271202033933 0.013678531903679467 -0.30606357437596865 -0.12735653142087555 0.004813361925124981
67.5 0.09524365251828303 0.006984008474785398 0.013614503342844331 0.30255592490268324 0.020988127696434086 0.3035421029823776 -0.10027904705849106 0.019540695082508126
68.0 0.06520026998564728 -0.022345936679475306 -0.04582972256242977 -0.2988768799877526 -0.04835275711214221 -0.2954713970484064 -0.10051505243942828 0.03320146725480701
68.5 0.04918918608416402 0.007144244324350725 0.07992805714447566 0.28891358946982704 0.07796495037644763 0.28789456928332374 -0.10694431429277983 0.011911078707563747
69.0 0.07887245005274722 0.005312391394377722 -0.10819667931071607 -0.2758746096587532 -0.10635091942574049 -0.2726702313558209 -0.08388500437869488 -0.015086896758082488
69.5 0.05030265657724195 -0.023830539930480843 0.13243521970639763 0.26063833608715853 0.130788703860387 0.26151753027526503 -0.07324912160805999 0.0003514587957988117
70.0 0.02425383054900682 0.029303117551553997 -0.157060789872625 -0.23872961177183166 -0.15638842546863152 -0.2464440034897757 -0.11481710878027922 -0.0035809713586248894
70.5 0.08664465955752937 0.04165805190178903 0.18019100387936723 0.22012164435349385 0.17670558912885187 0.22456450942723685 -0.1199852756831707 -0.046070435265605676
71.0 0.0686014494948842 -0.0037473265447394146 -0.19887873821037855 -0.2066903798985613 -0.1973922394563961 -0.21333025371835454 -0.09182028917188749 -0.02161226673333641
71.5 0.04986681560478046 0.054388415844932446 0.20963025422925194 0.18334140154272038 0.21554115344475644 0.18627970435008231 -0.1375246613291546 0.01756646121315003
72.0 0.1304776111641867 0.040996707537024606 -0.22542350183016457 -0.15737946661773491 -0.22815504596715963 -0.16624278178484908 -0.15602044083517128 -0.024134953895980568
72.5 0.09115021296283404 -0.028299439753435355 0.24334858894906267 0.13760467230070417 0.2496609158857529 0.1445781909515003 -0.09574068821097548 -0.008440434709035214
73.0 0.06394567858794806 0.034666311547112826 -0.2560181225873469 -0.11842445171404867 -0.26018310272235695 -0.11699069040356123 -0.11824245121887923 0.05461756673040344
73.5 0.13726749118137246 0.006459350496699137 0.26192309591811846 0.08972106284159385 0.27119682937457185 0.09419050600433408 -0.15188508538035062 0.0067618206772576605
74.0 0.06691247250684312 -0.05552692440389503 -0.27569188049338667 -0.06239284561311884 -0.284057584799398 -0.058987324246477554 -0.07622619754491473 -0.017032086226888593
74.5 0.04520168008914699 0.036020507324860056 0.2823605836019594 0.031278323785088234 0.28278948387753244 0.03501622874002288 -0.07592993039935812 0.048871570280680954
75.0 0.12873147679743865 0.003736877632139182 -0.28206902782840076 -0.0008374847317129154 -0.28685533918163036 -0.0008932942173049561 -0.13750312067470946 0.002539737105111265
75.5 0.05137304536257212 -0.04048821464533265 0.27966978813434556 -0.028730182467260904 0.2793432532333112 -0.03221921377324702 -0.08257942055328325 -0.05474127578239675
76.0 0.0644477420723923 0.06025912745371747 -0.26998849368466526 0.05630806685446258 -0.2771828389379034 0.05317334880584953 -0.06654294769294554 0.01470057144752898
76.5 0.1448346609129038 -0.004279309539278152 0.25387539223521305 -0.08361185431211342 0.2637926593798266 -0.08789985295901803 -0.1555185052205208 0.0021509307809148125
77.0 0.05895552693787585 -0.044226434188548824 -0.2461763698871761 0.11118524690800707 -0.24892864528708908 0.10888621856181722 -0.12433815934592406 -0.06105197728750936
77.5 0.08477786933275448 0.03906973387461903 0.23616704284148857 -0.12926777182401777 0.24230111329665868 -0.13531788547042317 -0.08445658157503705 0.01069561724944162
78.0 0.1399899221680138 -0.04217637740805973 -0.2145657594757346 0.14252226016677824 -0.21683261228017148 0.15177008753485985 -0.16132387569750745 0.035989872318515435
78.5 0.03530647155558181 -0.059042450590802056 0.19806526684806502 -0.1674768184888257 0.20501449173947425 -0.17051040009779317 -0.1442239722550557 -0.030788674007459882
79.0 0.06710907600067112 0.02498083725127354 -0.18672092851591018 0.18831319924689136 -0.18679074707694462 0.19583188574501176 -0.07280007820386782 0.01822757107046393
79.5 0.1006192030158389 -0.04808793119011381 0.17108727570487553 -0.19809635589361124 0.16689875722687447 -0.20057505947197132 -0.12684022961370436 0.05846395044831739
80.0 0.009921031205521803 -0.03143029706747121 -0.14894275448610933 0.21600524679908403 -0.14677673540164535 0.22246640614742225 -0.12839007116218415 -0.015148875380353274
80.5 0.06536972068810525 0.04479609869238657 0.12429561620424964 -0.2352745865721174 0.12198130450833287 -0.23321068357984798 -0.05639607342662755 -0.006881292769879284
81.0 0.09430661404128751 -0.02782727303128952 -0.10513292328892224 0.24688687462474915 -0.1064828508395185 0.24326376427039112 -0.0946732350272429 0.03625929469224564
81.5 0.027101734676070865 -0.004670474805212355 0.07822419373707906 -0.25653525501682467 0.07450417829164956 -0.2546879808368578 -0.12768575208653263 -0.02548515752645812
82.0 0.08624547845561024 0.037252914772300395 -0.047284942917452645 0.26393546368166815 -0.050835786404934094 0.2586685727241331 -0.0810118942048428 -0.03901338524478804
82.5 0.09546823017431628 -0.03515670678516587 0.01950950331694424 -0.26436599668366245 0.026973325535706916 -0.26705580093523873 -0.1032378278290461 0.011806867749027046
83.0 0.03550099463816475 -0.013050970364635863 0.010939588228132614 0.2623644023916055 0.004261877785775986 0.2650228314912713 -0.1493019757358109 -0.012328367749743975
83.5 0.07540182753268561 0.018012132903996687 -0.037786518472842534 -0.25967175631338485 -0.028506711912971893 -0.26540716578417245 -0.11672885456320961 -0.02839580417537228
84.0 0.06832795011886487 -0.02823931482967755 0.05922426897253983 0.24970476355904495 0.05896762430124907 0.26346699563849224 -0.1114683473057452 0.018951623924817414
84.5 0.025569497071838507 0.0032763559176648862 -0.08512383221382246 -0.24012712445322607 -0.08431687822807478 -0.25027589801011757 -0.13969544030974612 0.020510553304996983
85.0 0.06291166086154541 0.034576653920369224 0.10918550796546432 0.22742364273130075 0.11220527915904552 0.24135012493501373 -0.11610548568185866 -0.000207282763045463
85.5 0.07168397345259986 0.0052804896359234755 -0.127722134506381 -0.21880412985698938 -0.1362146339787827 -0.22497766608321831 -0.09079548543253024 0.015035300651192705
86.0 0.05157095203686526 0.020687867076251476 0.14493453627325845 0.2050131705887222 0.15493767369348482 0.2086137508294563 -0.10119135084114007 0.02127207876697541
86.5 0.08251958682220777 0.0404133826839293 -0.1638928704780928 -0.18735829903632037 -0.17665037995159594 -0.19082668112897805 -0.10546741826690233 -0.0016176893018944474
87.0 0.10004217425406645 0.0072276560614126925 0.18267214251462638 0.1715507299867627 0.19115052185226716 0.16673804840998477 -0.09069280699013037 -0.015843715959907998
87.5 0.07579791011600365 -0.002369160286600865 -0.19945502017492808 -0.15415668111564906 -0.205141238432292 -0.1490292935645221 -0.09048466569571137 -0.0077336636870140064
88.0 0.08463654318023263 0.020715067105190915 0.2161241088074321 0.13516239478786432 0.21893353747681518 0.12547513802331173 -0.11675063535142564 -0.006729540207234142
88.5 0.1023855807615553 -0.008118578826413309 -0.22670763912886963 -0.10902127868773712 -0.22492322389519046 -0.10185721487241083 -0.12709432049045888 -0.02733911952422334
89.0 0.05960205656062221 -0.019320158932478463 0.23928803124324227 0.0839088852308782 0.23309065117700428 0.08220025237053709 -0.1078879468210235 -0.016119619965040733
89.5 0.06549874871579052 0.028865018130329673 -0.24625030045017535 -0.05736990940982423 -0.23954853009666024 -0.056852444563470224 -0.12856830889970258 0.018132798610522916
90.0 0.10389062198301546 0.0026867174211318698 0.24750103037931906 0.02799081495675408 0.2426467381205735 0.036827194674517824 -0.1464558867985242 -0.0012479940621033373
90.5 0.0596738545200716 -0.011503295521848261 -0.24925360441314856 -0.002886606940051982 -0.24913800871164177 -0.011051956526314348 -0.10637899928300357 -0.0076491580165211235
91.0 0.08140754868586642 0.04335462970903818 0.24260786595029493 -0.020850695334466963 0.24543818316252966 -0.01227013055655163 -0.09989061175794513 0.039518667883857835
91.5 0.12825886083477983 -0.008025502064501486 -0.23338148964277433 0.04552136427116593 -0.24447811941140812 0.03468440326706951 -0.13613994630381965 0.01743941500122674
92.0 0.06485097282346852 -0.02967099866991913 0.22781947104326955 -0.06874839980937772 0.23830269580237673 -0.06467726453851728 -0.09167033164811804 -0.022652907001662493
92.5 0.08818196176808969 0.027120868313493703 -0.2208122480547771 0.085777300111854 -0.23161086114433166 0.08467492537319395 -0.06978307869869298 0.0217226900314799
93.0 0.12316593135602473 -0.03834945456886438 0.20814240669811154 -0.10170639765500193 0.22280930289962575 -0.11108176869924762 -0.13202548613835624 0.012058699217522199
93.5 0.03740119433648577 -0.04155773855344832 -0.19708153314498422 0.12457025863303857 -0.2037180445248214 0.13361609027541183 -0.11038527288482361 -0.04874060318500189
94.0 0.0730006441205645 0.02652453772752242 0.1881071808711697 -0.14535972943175005 0.19479035689138616 -0.15350144207112365 -0.07500196981131935 -0.0029433558096333173
94.5 0.10129670880179636 -0.04246885401913211 -0.17477495714467214 0.1584875903011278 -0.17098436899520794 0.17164036477412506 -0.1418015479131557 0.0186126141232221
95.0 0.01764624056630722 -0.01987238094741634 0.15534468425859538 -0.1769201707962211 0.15174699249573834 -0.18349983498584266 -0.14214358652260076 -0.04070465530809818
95.5 0.08018356775908725 0.04519426030337354 -0.13691118971034336 0.19612022012999678 -0.13395571066760475 0.20234299349373233 -0.08653473284083972 -0.002360279831021614
96.0 0.1003943889502091 -0.03543316661924945 0.1177571195804728 -0.20802550979959825 0.10873265976399694 -0.2076869847752483 -0.13427801793182492 0.04601865440746398
96.5 0.027297272221939294 -0.005766510924537795 -0.09315639839069459 0.21957082636108174 -0.09052630588095528 0.21514767587075057 -0.14667982384141698 -0.014013493840595689
97.0 0.09749990755224112 0.03489572734970586 0.06880019421683685 -0.22780512157790006 0.06537838555123446 -0.2254484815725565 -0.07131263724084161 -0.003051465899223925
97.5 0.09307199990959367 -0.05197703257597741 -0.045266454288129934 0.225643385543748 -0.047900277548763165 0.2247268207350581 -0.10029890371500998 0.050058440602182896
98.0 0.01943174413357129 -0.006349232089254581 0.017904748313501917 -0.2291979506182289 0.024404272981478823 -0.2323541727360773 -0.13239771090596036 -0.007883868004946329
98.5 0.08871775442116285 0.024392484770057767 0.0028715208436168225 0.2306978007217182 -0.00030698337589848143 0.2267093360559893 -0.0710761313179037 -0.028614350340336697
99.0 0.06564906985792507 -0.04501749655164428 -0.019926143681501883 -0.22314845464116279 -0.015472855874185032 -0.22865165102811263 -0.08507325041138215 0.025802340590989268
99.5 0.015326696505000396 0.018678188215074304 0.043700767832584766 0.21564811203523235 0.042661420452097226 0.22457544375543753 -0.14085111631209232 -0.012191426206403844
100.0 0.08805950289585349 0.0358921810630935 -0.06676018841239381 -0.21348555982198367 -0.06190690121894355 -0.21921592751452507 -0.098052002733179 -0.04384105001593182
100.5 0.06768944483986701 -0.021644075929293165 0.08120729439334415 0.2092047264507056 0.08394558849652586 0.2180199805740115 -0.09611204282645319 0.01173405247576043
101.0 0.039348910778131026 0.034902009521536895 -0.10002567505422442 -0.19991028809044395 -0.10582378336952439 -0.2042863167442691 -0.14761635609497303 0.005824045540841821
101.5 0.10677711654906091 0.03099165725137419 0.12168109706146436 0.185565420077464 0.12367391071485008 0.19396458033388053 -0.12238120705991822 -0.026123396763258824
102.0 0.08082894255135546 -0.021656598509995365 -0.14062739164281146 -0.17767071736865417 -0.14743728406381948 -0.1814218281699141 -0.09738839140553024 0.016971209216209326
102.5 0.056914674317427874 0.02016891965231085 0.15954725244873194 0.1639580011707479 0.16294979300684434 0.16336211562284467 -0.1305311913941935 0.027126255659755752
103.0 0.10176039868340596 0.010589923079123955 -0.17618953838481427 -0.14549412009876717 -0.1795447024624558 -0.14613236760091836 -0.11848613549843819 -0.006956123403519828
103.5 0.0713752140202346 -0.023429181128098223 0.1909368001358892 0.12585627021768944 0.1935490685797583 0.12499815482810396 -0.0847941371952961 0.006528515072306151
104.0 0.05234325608109042 0.01601799137893186 -0.20407365833783242 -0.10276014242644713 -0.20518570060388705 -0.10537482948907967 -0.10429250025455152 0.01797852105018181
104.5 0.0880721888149578 0.017051498374280934 0.21133628059812717 0.07870399719098799 0.21428903222029508 0.08060539529579608 -0.11066992127697076 -0.0098588290944376
105.0 0.07603148863006316 -0.005177591780558874 -0.21469420333006972 -0.0566686557416721 -0.21866916115044094 -0.0574104778133679 -0.09644030638071252 -0.017468852052992232
105.5 0.06755703116556629 0.018972557278772572 0.21532215571078256 0.03425286099470346 0.21991835473925028 0.03519014282141311 -0.10179032360712331 -0.004755059829321105
106.0 0.10059597852961709 0.02062075549282169 -0.21554449016589017 -0.012013475157924176 -0.22107715454335553 -0.011745957290984889 -0.12286438264505388 -0.007023274192681199
106.5 0.09594687477753788 -0.01165304093378094 0.21447632257135438 -0.008301460950187257 0.21984609286334628 -0.009030332855980726 -0.12454135929801721 -0.01587164473971666
107.0 0.07623893076528902 -0.0040695012747340095 -0.21203316210932036 0.02798274570761464 -0.21756344882203082 0.029198260580341952 -0.11505285984802147 -0.006556332075904888
107.5 0.09652913231042423 0.005406123325372014 0.20842215209587756 -0.04646689828981824 0.20887411827282198 -0.05000852221301712 -0.11982322696638549 0.015319915055762499
108.0 0.09310752100104201 -0.030175068892769313 -0.20192736466256023 0.0652640001048308 -0.20337700501505634 0.06729711317216519 -0.133614705023755 0.008451923221897441
108.5 0.05385895310088689 -0.018268617940062667 0.19729921539659898 -0.08677052281400405 0.19770512342428906 -0.0889472248650566 -0.10906022979153222 -0.0024579463867290753
109.0 0.08007639310077296 0.010799741041754 -0.18745016651455773 0.10516780101027497 -0.1875456386757109 0.10662597492893676 -0.09298155523996612 0.02342437999490246
109.5 0.08466370281665628 -0.027998095622746046 0.1774557369307797 -0.12386393429990768 0.1777599946684539 -0.12339597313536575 -0.11900845779564034 0.017861907719321307
110.0 0.041250136885706515 -0.005180973583475015 -0.1637186397011636 0.14415596686551904 -0.16124184621921836 0.14254169221079444 -0.10383224672929332 -0.02040221054259845
110.5 0.08807666333341213 0.028249697334366806 0.14612170501301125 -0.15983535696271753 0.1484866107974786 -0.15669177437104598 -0.07804694976026337 0.0023552272699842217
111.0 0.09431309936117818 -0.02986279042617394 -0.12610405431387597 0.17209738940535269 -0.13241847196958623 0.1718019517898801 -0.12128209561264998 0.013405893427036639
111.5 0.043952684467930714 -0.004743160438304444 0.10730990065589333 -0.18798106479225046 0.10836266510779023 -0.18192905915893376 -0.12428536365570461 -0.03428873416038855
112.0 0.09904037308641021 0.02010353149962625 -0.08596701275725162 0.19256300010337704 -0.09506768907249838 0.19721373246557497 -0.08536245695082988 -0.014415200876026518
112.5 0.08572502523057958 -0.047923367231551356 0.06589805449053364 -0.19351244802824452 0.06985438330182762 -0.20193689878804777 -0.12605993049253084 0.024481220742261774
113.0 0.027027223835031828 -0.0037589496305868945 -0.04379142244011038 0.2016160953991404 -0.04974787891166221 0.20680229092782243 -0.14872084167531535 -0.019492472237624636
113.5 0.08879323785550282 0.019606033591876765 0.02455784343382001 -0.2021186514461314 0.02704655929102384 -0.2115742530991485 -0.09228101386864578 -0.01214192505659912
114.0 0.06572112231591855 -0.043930244842240056 -0.0109931109686928 0.2021168580270969 -0.004967806165205718 0.20692287835118767 -0.11147812589851258 0.04262642538774878
114.5 0.020487996547643234 0.021351005600433397 -0.010724957506420494 -0.19693338299122623 -0.013966416747990013 -0.2066978086194056 -0.14393860297147001 0.0009956429381976803
115.0 0.09872507588813909 0.031882974178232146 0.031009389693497875 0.1993358918971014 0.038794639287927285 0.20553222381528885 -0.08274144457555578 -0.01819816109466703
115.5 0.06566017164482953 -0.0299053804882405 -0.04548324525371233 -0.19820696750816588 -0.05213418001458731 -0.19694524493511187 -0.08469460018161246 0.036160687357272764
116.0 0.03836501876380583 0.036151698878619506 0.06512607597863623 0.19154337135891433 0.07336353424769669 0.19203212240978126 -0.13631762418688528 0.002347213185078252
116.5 0.11574518294763923 0.022706444158327108 -0.0859308447867001 -0.1825922987849009 -0.09058897652967825 -0.17901171713944233 -0.09201163883841902 -0.039338921335779854
117.0 0.06656778913673488 -0.03499545314675865 0.1047468839807754 0.1774477491041955 0.10335830483978396 0.17270444942973062 -0.07872933589379465 0.013231758896971592
117.5 0.048377779530622285 0.030536170415273563 -0.12522865380712414 -0.16602983931041948 -0.12121365612962785 -0.1596810849972437 -0.1421830104921085 0.003134043692812649
118.0 0.1098914722514669 0.006493027907542489 0.13893350774276944 0.14727575708659163 0.13529565136730523 0.14868380648360283 -0.11792506811112306 -0.041274635645174425
118.5 0.05535240294457685 -0.033017616218662865 -0.15244382687176744 -0.13259853844546865 -0.149343940007243 -0.13732432789872995 -0.09160024681604918 0.00611076502957417
119.0 0.05075249437191438 0.03868592952911383 0.16593865585517237 0.11387683410907878 0.16009344206044754 0.11831033466445087 -0.14289479639961564 0.021140966775052557
119.5 0.10659620100137399 0.009506475452895345 -0.1758003011484407 -0.09473366255756151 -0.17260555682708817 -0.10565045132898519 -0.13136855613122078 -0.021287297644231404
120.0 0.056675653298868256 -0.013754643446451482 0.18135234988923404 0.07902572212634307 0.183864361953923 0.0857202834207981 -0.09036206995083948 0.008649494700412564
120.5 0.07169833280386548 0.041357097068304746 -0.1845859446050829 -0.06033582504337816 -0.19020987767931966 -0.06819966063359917 -0.12184764610180529 0.03256907880808368
121.0 0.11498905983341635 0.0024066714512044735 0.1890949004291779 0.04061655207907458 0.19929130768513675 0.047918633562866034 -0.12213909295277069 -0.008059388597369196
121.5 0.07146582246400064 -0.017132574478343997 -0.19317043740911669 -0.024432433852673796 -0.2030263974555634 -0.02527576527985135 -0.08262176267969451 -0.004772430430175443
122.0 0.0812097040566768 0.020669490188512718 0.19365450228743306 0.008355469555123554 0.2031623941624703 0.005734369096450667 -0.1020998964740387 0.017655214504046567
122.5 0.1064347924950277 -0.013795003570579605 -0.19471888705783885 0.011064114382118153 -0.20137703008321203 0.01813923205785964 -0.12104688377103698 -0.011211843662887034
123.0 0.0660411895165715 -0.02442934021707443 0.19236317280603837 -0.030753621927209117 0.1973211767539353 -0.037705185044690386 -0.09767501359699615 -0.019788691141689536
123.5 0.06974698946975046 0.008621035162630469 -0.1907014545600198 0.04997757209904154 -0.1919196927280812 0.05705297144161098 -0.10711811397334965 0.001202860210548185
124.0 0.08715648366914934 -0.008572573050295976 0.18422465782078337 -0.06905585982190839 0.18204213665361113 -0.07685516499775226 -0.12869560003526098 -0.0030966414950373967
124.5 0.063767469779775 -0.014332677702199089 -0.17678759215304493 0.08972428465289968 -0.1736635448013318 0.09358222942965837 -0.12277160475150468 -0.011765021767113377
125.0 0.06713258164067352 0.012185960658885638 0.16667868907723404 -0.10903143278568102 0.1623699762303854 -0.10954992680282732 -0.11204261947001101 0.001962403565961063
