! Created with skrf 2.1.0 (http://scikit-rf.org).
# GHz S RI R 50.0 
!freq ReS11 ImS11 ReS21 ImS21 ReS12 ImS12 ReS22 ImS22
1.0 0.19826469383200826 -0.3705075225792021 0.7230484490309224 -0.27469258291939147 0.7409679546943879 -0.3738033923337516 -0.23880213886846335 -0.24022242903695679
1.5 -0.10263368605109313 -0.14759984756718644 -0.692445659980036 0.44376358861140747 -0.6978844196023198 0.4430316954587265 -0.09320923048450705 -0.22136345676549488
2.0 0.08785847208574585 -0.0654514000481868 0.633232853462076 -0.5088095344370503 0.5891930244933752 -0.5496390416599702 -0.22001612936626366 0.08058727028839785
2.5 -0.046396941468913676 -0.16764176472793574 -0.5309056088696832 0.5672288009586853 -0.4731988434286872 0.5622966774308337 -0.36470289820313706 0.04731922384237063
3.0 -0.06747323612733158 0.09221789914176234 0.40044204255732435 -0.6547760631432418 0.4025791888657122 -0.6596308982993867 -0.16370784398433055 0.021057564172374164
3.5 0.17065900470493942 0.024534445650355344 -0.29221908868576496 0.690313631673194 -0.27979885635967694 0.6795843041784408 -0.028813503475066123 0.20529186492806645
4.0 0.05175383143535789 -0.12444569083961862 0.18243413353956592 -0.7148145909775174 0.2034473837661931 -0.692817686288649 -0.1010652943673767 0.167719069665862
4.5 0.0070393440604027725 -0.018590020045182686 -0.05828858104001363 0.7312426141286361 -0.059949518383793476 0.7278875752276075 -0.0008853832882521085 -0.028428335777091553
5.0 0.056779455926103874 -0.08540531243197395 -0.03316644262383715 -0.7140177202868765 -0.027439371061602384 -0.7036792003376552 0.07878685107601631 -0.044646578638225604
5.5 -0.09006256308546634 -0.09656138047063713 0.1340680218899842 0.6768898584418265 0.12508829502890742 0.6941923992033879 -0.03351857546565781 -0.052648006070326554
6.0 -0.11865436455890918 0.07369219390209003 -0.24333169148656256 -0.6320061126184913 -0.23492128599433212 -0.638180441585023 -0.14566907037030632 -0.13200854557014435
6.5 -0.017475917814617853 0.13261640037388078 0.3299321821240882 0.5823633857209841 0.3071627677835913 0.5937141394942107 -0.16548745967717957 -0.13197069649817236
7.0 0.015852644185376935 0.125375346244146 -0.395365725394364 -0.5303023609546613 -0.3897668696611776 -0.5498879475337067 -0.18205189942843833 -0.03607321416037898
7.5 0.05328464579931956 0.17770896688695859 0.4454254710788569 0.4597438305126993 0.45192434034314166 0.4733384885950747 -0.21895405787733108 0.05934817339465892
8.0 0.19592191692738972 0.16000601251815846 -0.49191398739837117 -0.37514474795096947 -0.5051813038897732 -0.4093966441459592 -0.21934217769968845 0.06151825768304184
8.5 0.22006790645168525 0.0019418137546129265 0.5461256346875669 0.303870089565207 0.5782866213746733 0.32679175339257005 -0.09019846364960347 0.05177972413994994
9.0 0.1171828152118849 0.00035353041730848926 -0.5896098632123528 -0.23573278444077428 -0.5993485855758444 -0.23606700859610869 -0.015404576408395583 0.12110559675526107
9.5 0.1899101698509801 0.017434531967295625 0.5992790827613107 0.15248123225300933 0.6307605598115134 0.1540421531855751 -0.08574670324567797 0.06649877254038518
10.0 0.12301369176295605 -0.12125343289259315 -0.6098890535511462 -0.058775900634654196 -0.6318117913121312 -0.022570609075507644 -0.04416063962790932 -0.10760307915512164
10.5 -0.013629212538294192 0.01239772849372884 0.6193210557375721 -0.0407609289770142 0.6186976526516372 -0.0423193219403937 0.027063151274981233 -0.061905122865425884
11.0 0.16363668164796533 0.07690730091324965 -0.5851299762698692 0.1317324592731825 -0.6003655194559154 0.1458304394483888 -0.15378062386669297 -0.006839367130440642
11.5 0.12465197292184355 -0.0789641795395701 0.5574165975837649 -0.2160229696736432 0.531837096247054 -0.21561403927518008 -0.22994420476745128 -0.1321550406420822
12.0 0.06093012082218148 0.055680153040007556 -0.5241738067282425 0.2867640153024861 -0.5253719726593549 0.2837956508683515 -0.10483145519793692 -0.07123115728468364
12.5 0.25302615558004204 -0.004474569751519131 0.44823132397269067 -0.32418976199448923 0.45036094634289575 -0.3468105668586181 -0.1861149148949155 0.12584790294752507
13.0 0.10547995579285711 -0.2000497852719457 -0.38352234691793935 0.3899004775724295 -0.4022048342797082 0.3742439065372688 -0.2622547911225692 0.035897839129149664
13.5 0.008509271355724057 -0.040144977547437205 0.3379435169126641 -0.46087179505640913 0.3469647313690277 -0.46129064036432416 -0.05636318395492816 0.004113852056483308
14.0 0.13616128487210685 -0.10494586460167406 -0.2948061015223726 0.4648019273924356 -0.27792827326747527 0.46590915021627394 -0.01804047335538531 0.15886985398735717
14.5 -0.06854940207916763 -0.16755618931574434 0.21201802018489696 -0.481312267257166 0.22723625037318493 -0.5116741034919297 -0.13312954932202162 0.06345452413430856
15.0 -0.0766866825258041 0.07623347615048506 -0.11890050054027804 0.5255609918605577 -0.1213457907775831 0.5336413274047712 -0.02194532343252741 -0.1065336063898818
15.5 0.06916373478381795 0.00919497359813313 0.06952535477579098 -0.5473731023319962 0.08095513188242891 -0.540411157754851 0.02967688727989738 -0.008263711897998864
16.0 -0.05554406143175453 -0.0035550237895999263 -0.008748696638611707 0.539387304472272 0.013699733550617408 0.5487275333025696 -0.15134592355056284 -0.016175385150994787
16.5 0.04657944490770328 0.14685309669690236 -0.08460711430137761 -0.521100503781721 -0.0871478164296876 -0.5189908828618738 -0.16917334524828678 -0.13574555950932496
17.0 0.15035859844858682 0.00732668660483027 0.15946055895213473 0.5124743735737348 0.15369259588718462 0.5273713988377722 -0.09757806611267165 -0.04663370194968549
17.5 0.026760261673699798 -0.022096651788536398 -0.22996879338876053 -0.4892652035053617 -0.22735096547506256 -0.4819823168090865 -0.19122223249192527 0.06081761991816659
18.0 0.06847490457210355 0.05754233891181743 0.2999077406046257 0.44157127951396397 0.2828521590902947 0.4475059579589734 -0.20823102876322305 0.011772562875726672
18.5 0.08716697481081784 -0.02156731325687588 -0.3565176436504409 -0.39400234022735275 -0.36048128861668355 -0.4056771091382331 -0.0967953628502381 0.03136919817300611
19.0 -0.005253716850200472 0.013365004729851901 0.4013879264455159 0.33181495894128027 0.3987453391904568 0.3425109464977268 -0.06994144425929698 0.08853976890963011
19.5 0.04803711481705201 0.10388125212200972 -0.4385584891539363 -0.25677312230377175 -0.4460495500415539 -0.282198875723217 -0.08452589437154946 0.04466143696514699
20.0 0.12070966523342712 0.07414832204045005 0.4626249694866652 0.1903111269911481 0.48304654458735913 0.20260182967009582 -0.056816773360131724 -0.02727119272017294
20.5 0.11247947807649217 0.04808301104734933 -0.47867783473604375 -0.13066670236936725 -0.49518550344082873 -0.13297920336167116 -0.04285977377560366 -0.050737281009400996
21.0 0.14130731150564035 0.06996508607649483 0.48077649721046606 0.06738197076391407 0.5067591212563988 0.06183303193244284 -0.08295800187453255 -0.03839334269065393
21.5 0.2056255440111142 0.006147257333691504 -0.4730142666169028 -0.003556349102363429 -0.49167576483312636 0.01494317295839445 -0.16305228084330306 -0.04600052243310263
22.0 0.14100755444953317 -0.08975047926645681 0.46921780708866456 -0.06289294658083078 0.47986456731686883 -0.07447958728118763 -0.16738487176237643 -0.07297670491721409
22.5 0.07980591008833404 -0.034960613758915855 -0.46953016221200183 0.1264236467761759 -0.4703601675290389 0.13925432152298262 -0.13054029571686485 0.003184985769592873
23.0 0.13896591796047703 -0.05510898933203786 0.4438644823230518 -0.17364220089257218 0.42678127814905975 -0.1906652922069198 -0.18293442251639636 0.08214665784362807
23.5 0.03233265332563599 -0.11537746312326237 -0.4101434031109742 0.23658770846854818 -0.40615691733919457 0.24227813923775943 -0.17962211354565333 0.01815568267295936
24.0 -0.001913543081073583 0.03228545626225163 0.37064239255987247 -0.3058414954022352 0.36353161155210195 -0.3077120880546117 -0.04102721183867849 0.024380927259855398
24.5 0.13291512464586733 0.0016744302180913522 -0.32481493825967106 0.3492199324717911 -0.3229415489266558 0.3296198936891742 -0.05836330060877808 0.11118684453071279
25.0 0.03235942647640634 -0.07151199372010071 0.2705283995633804 -0.389075257236341 0.27528681173285163 -0.38576482006495816 -0.12716929448026276 0.0011404076345905324
25.5 0.053573070736058756 0.06255090252993144 -0.20799822737668264 0.4260442857923332 -0.20490330133487958 0.41210163945500544 -0.026825573358610046 -0.09349777896045287
26.0 0.16580880050069532 -0.05483057578331707 0.14657529529640778 -0.4328641044314438 0.1693882241665848 -0.4390936731158018 -0.028759649089599132 0.01567221487372687
26.5 -0.008669611149916412 -0.10949502224696465 -0.07435376191604665 0.44192899951488607 -0.08448900267437369 0.45320885022195956 -0.18993887876121776 -0.02196934978476559
27.0 0.015238950004291785 0.047425950194083674 0.00650359358994628 -0.4542021661287901 0.03099336199433327 -0.45009089809934116 -0.14224433661652805 -0.11623014733462281
27.5 0.0806667054588655 -0.0613484054081031 0.031173795709274067 0.44818440655675157 0.03416959686452978 0.46952513226158626 -0.08391991626585288 0.014904343380924674
28.0 -0.07757289998980088 -0.023522585969489706 -0.08900239611048316 -0.41951584055354074 -0.09473044226057988 -0.4348273907928833 -0.2020279686781298 0.07421841116516616
28.5 0.03239112273764825 0.1333355731812886 0.16011075140319364 0.3927700610281392 0.15151221868874565 0.4278778440919414 -0.17264556147441612 -0.02653657945420581
29.0 0.10224613701795754 0.013444203955507472 -0.20691463180096883 -0.38596741667479945 -0.22346323759787046 -0.3956372098492094 -0.03602564100296767 0.035170148465955425
29.5 0.0032147608387263064 0.056363631535713964 0.24046789569040417 0.36154526101741774 0.2549074116611098 0.36016026773653936 -0.09595661477788081 0.10154692566288182
30.0 0.13664862408141604 0.11371706325118215 -0.2848451048264459 -0.30619473654376794 -0.31658197266719756 -0.3174017336716048 -0.11829060752094728 -0.019551455122451575
30.5 0.1507193319181945 -0.030548267071805912 0.333489024048521 0.27048119364108864 0.3497530658534349 0.2612908613482241 -0.024452729056370016 -0.05478269009095428
31.0 0.05225057803718592 0.003385517259947086 -0.3718487051369156 -0.23024986312726062 -0.3750209266262766 -0.22010120267242117 -0.06428428547686409 0.007868693455409682
31.5 0.12169952292040923 0.03308158780883994 0.3960273316666161 0.17123882536070467 0.3973779591185968 0.151536773836678 -0.15375542165287215 -0.0454600726356833
32.0 0.09523012425750493 -0.0425928458469242 -0.4183939643320279 -0.11364767425976868 -0.4062907019173751 -0.10296868708038673 -0.12975455432249794 -0.07594765474394359
32.5 0.034614732601254965 0.014823150966321183 0.428185314727214 0.04956050296071597 0.41900176405345707 0.0486787043787624 -0.12975667006695055 -0.005995257225597155
33.0 0.10094536061175385 0.0524447912994424 -0.42459060767280565 0.015535216091476912 -0.4123880441399112 0.008099152820276848 -0.17093518177487205 0.027275010724778007
33.5 0.12728864274767737 0.0011482043021821126 0.4099729274542683 -0.07666024731315454 0.4090326113557239 -0.058128777914980584 -0.1593998653703917 0.020387009162794702
34.0 0.09816518901197151 -0.005042277111864757 -0.393758976907866 0.12849926073300846 -0.4002429499084025 0.11626902460887072 -0.10971579717289343 0.029679032051174725
34.5 0.1291709478415166 0.007386538779666125 0.36628851747800617 -0.17511384200281055 0.3770592616781314 -0.16667445121865956 -0.0770112690897403 0.05036077148471489
35.0 0.14559262527585146 -0.058216979853441285 -0.3325236410883409 0.2154605350950356 -0.3560967209764969 0.21257186359009947 -0.08866686359904193 0.04385916176584043
35.5 0.06007052801689916 -0.09041626224956514 0.29695247786758294 -0.2595388341687789 0.3169576993450641 -0.2692435706134968 -0.09099412098942448 -0.023476001586032677
36.0 0.04746938271112458 -0.019136816171649855 -0.26415933903449973 0.30053953691129054 -0.2775468664185582 0.30335567029939553 -0.048631196272424446 -0.04321718570338651
36.5 0.08176445093042452 -0.05900058233105791 0.22894582984960138 -0.323442789765521 0.23428941718156654 -0.343517314249769 -0.09158814926770996 0.004687497377126399
37.0 -0.018535627642101437 -0.055879968872572065 -0.18018075602489 0.345637682287983 -0.16943128362309295 0.3650305975615309 -0.1727234499452761 -0.03863706023606582
37.5 0.02456445791938594 0.06768162938424223 0.12149593911756204 -0.3736429118430508 0.1259925308213433 -0.3855417192310514 -0.12064171450193718 -0.06928894801661992
38.0 0.10384526132324189 -0.0112583080884395 -0.07571728920758901 0.3913438205262179 -0.06493365639725526 0.40114544937964824 -0.10464519475304075 0.04097647043574645
38.5 0.0031335712239439735 -0.013493283430743849 0.02295951918566584 -0.3970629768464886 0.014351083907619707 -0.3885230360313295 -0.19366012745695513 0.048023058111611096
39.0 0.08542906770967681 0.07894598130712134 0.038915104243713076 0.3900042067379632 0.0444872569452647 0.39815077789650266 -0.1277799632308327 -0.027851331848965728
39.5 0.12416245943618481 -0.05589162111282246 -0.0891903083186334 -0.3780365162060825 -0.09857060343848542 -0.3746741438469426 -0.034525062288315665 0.05110762304098779
40.0 -0.01825254136573399 -0.02393652759100635 0.14313040537595395 0.3573932353354383 0.13416518717150783 0.3588626469803517 -0.12134064569275559 0.0766211686201326
40.5 0.07308175837184601 0.07024273917402583 -0.1967559715472481 -0.3288317013363827 -0.1963570084794985 -0.327834227734547 -0.11109684767450195 -0.05533407861151617
41.0 0.07662544385438487 -0.04394994122594878 0.22958096348344414 0.3035628316095967 0.22584836011905368 0.2958561484518275 -0.01471850761159428 -0.036222277273618
41.5 -0.02505951056748383 0.04475908396024635 -0.25747507727486 -0.2606620530723853 -0.26239355202503556 -0.2691379573524022 -0.10333030690077774 0.03001158774882107
42.0 0.11739813629374157 0.1048980340016974 0.2909297484456447 0.21022291820459685 0.29334091564344394 0.2174810118431075 -0.17261926417461132 -0.06433567546491918
42.5 0.11242127287217117 -0.01608562352081815 -0.3190203535471127 -0.18006201304388977 -0.31628166055224133 -0.1909128102188571 -0.09103835598253562 -0.06786782104387673
43.0 0.05263842870815521 0.057194392759089656 0.33385090313969124 0.145497166511972 0.3417011078440635 0.141921051447374 -0.12521808308455298 0.043310938212405246
43.5 0.17064317566347623 0.046519358516278066 -0.3389559409144837 -0.0941437468515009 -0.3449948051541826 -0.0982001415723826 -0.1958304891957068 0.013372743919307198
44.0 0.11903023280530077 -0.06671689772427368 0.3555523024492191 0.045490986132424124 0.3681112215781374 0.052754107561634504 -0.1162190232064864 -0.017498110824299366
44.5 0.06056920597504544 0.00012525363297065698 -0.36825690656283033 -0.0025158037138746335 -0.3683458160080403 0.0003192618025048947 -0.07899541090780154 0.060172528811057356
45.0 0.1240133683602945 -0.009155376738401853 0.3601177913501275 -0.04439788360202147 0.3655388049062866 -0.04215855670953786 -0.12180727770548182 0.04705961142272669
45.5 0.06745751994389572 -0.058916439953450604 -0.35218658439515976 0.09697090449494107 -0.3577787418705169 0.10447849797609836 -0.09269105820255363 -0.018828150780299088
46.0 0.04000368511575971 0.011356111557273705 0.3364927993587685 -0.15175021493727184 0.33898744012296106 -0.14922028004984528 -0.05683179085591573 -0.009742336083223344
46.5 0.1022016700094183 0.015296355004361358 -0.30546847353674556 0.19637577541928425 -0.31517493531606255 0.19572259147965976 -0.09428382270704558 -0.0037924044700129774
47.0 0.0919731887854715 -0.02722481057661908 0.2737494854075082 -0.23685383255963988 0.276547979179095 -0.24076098421710912 -0.12574843991742768 -0.03198728058766684
47.5 0.06929157530994459 -0.010758732546875477 -0.23370786302743485 0.27120587013593445 -0.23860228851624674 0.2707971279632109 -0.12901038582529484 -0.039428564469416075
48.0 0.1010866931392309 -0.008086034585212992 0.19183418832860138 -0.29459501506720465 0.1999428388758261 -0.3029976947940695 -0.12323589345123057 -0.01054203019871176
48.5 0.09037294122250053 -0.062272736442450835 -0.14930407580278002 0.31119246964391306 -0.14997272458700397 0.3233950027345008 -0.14124104491267642 0.028493759116264773
49.0 0.018223417689533405 -0.04457935255141531 0.10062006041693654 -0.3246353848048813 0.10650285745678442 -0.3321313197780959 -0.1545993069212993 0.017918384287589184
49.5 0.045100284650876316 0.01305459500817898 -0.05685790615033187 0.33697714367167203 -0.05583120783147261 0.3494255175163283 -0.09975011058086358 0.004122842551504519
50.0 0.05654476144459377 -0.03590162643957921 0.020192113347481472 -0.337985593692014 0.011238693696855671 -0.3421292799086431 -0.07146897400023984 0.0522962803456425
50.5 -0.01272206518203844 0.008012190250126222 0.024185745707582838 0.3304734843668436 0.03158449722110394 0.34283130495727826 -0.11872851939919836 0.03209412732099914
51.0 0.07015070892359845 0.07952592905177318 -0.07589438307046852 -0.32359095160966955 -0.08550779750800651 -0.3268560074840011 -0.08788702107848079 -0.04990419156561521
51.5 0.0950630188985001 -0.012374468906066473 0.11523583891960681 0.31784314547067305 0.1159672166895177 0.3144398192737169 -0.039580693319488394 -0.009941815732150507
52.0 0.020677365424945887 0.029312097751516223 -0.1512939521650069 -0.30145446224740563 -0.16048880123128645 -0.29550326257285986 -0.13012293158799187 0.014423499870055242
52.5 0.12622699046400856 0.0630451780696342 0.19230703716194011 0.26992305324582394 0.19245688449913756 0.2627337202545583 -0.1534049048835701 -0.06916190944238836
53.0 0.10312931648649709 -0.05809422369958644 -0.23026717227610277 -0.24324455051332192 -0.22695253727542242 -0.2475002890020991 -0.07923205616566079 -0.034315241514688066
53.5 0.012269784156668897 0.02188729124461862 0.26425597110345744 0.20967942659456143 0.2570131539228064 0.20566098734633825 -0.1413758454471008 0.054858147209004234
54.0 0.11947319414725345 0.045967193784068154 -0.28849837814654244 -0.1634859737930867 -0.27562902956712315 -0.17559992308321537 -0.18596759168170476 -0.010200068673184763
54.5 0.07078802401383641 -0.048626961817377384 0.30850723960707077 0.12651344256372218 0.31160344994968975 0.13526363392479068 -0.08204772371409816 -0.01682331194276689
55.0 0.02493807347911834 0.06295785371712143 -0.31165014928973095 -0.08173292746283226 -0.31499737269255684 -0.09183825832440691 -0.08395439012446015 0.07621737240626851
55.5 0.15248690990360914 0.04737253032041428 0.31201408872916303 0.03120702538809887 0.3291641918684742 0.050978807296370984 -0.14981156424157535 0.02099838693529079
56.0 0.09234057502521639 -0.04301573691859056 -0.3203323500478019 0.009747525242990673 -0.3317829795891334 0.006090147536960468 -0.0711130826437079 -0.04663495216901795
56.5 0.07577766699390832 0.04197208685192269 0.3133203535397039 -0.04309057154418569 0.3276350197351612 -0.04218378110757529 -0.049571291119610075 0.018385918418194418
57.0 0.16234088329817487 -0.013076241081998627 -0.2925316906833759 0.07904638367128183 -0.3174624462387172 0.09371982465997636 -0.13865110498969238 0.002362146262773176
57.5 0.07379612464394633 -0.077457922081299 0.28463331045735607 -0.12363962806770759 0.29056228603615114 -0.13340924919393057 -0.12535751210045118 -0.06406086328750223
58.0 0.056106799654908675 0.002605045496454245 -0.27275644623459033 0.1598517511570083 -0.2758071217876903 0.1703202181966767 -0.09179919408563374 -0.013011406377771702
58.5 0.1032385517563911 -0.03312894607665993 0.24961298582664906 -0.18762428676588377 0.24202045979849623 -0.20649736948351474 -0.15048388741710514 0.02596054284857592
59.0 0.03409351954983813 -0.04651322566617184 -0.22143789380965365 0.22337956016806262 -0.21290591148810603 0.23095914060980433 -0.15388336755314877 -0.007653879291038695
59.5 0.03967563927793937 0.02223671255498579 0.1864767198096602 -0.25586830432259344 0.18109850408784825 -0.2607954023214758 -0.10627279391679659 0.009953117573988686
60.0 0.08868338471255102 0.0032952192116524007 -0.15040950577154613 0.2793184734503998 -0.14054158746847412 0.2753050678299408 -0.10209194041307038 0.04176756376093204
60.5 0.062417157463248135 -0.01971331070943866 0.10875184058582242 -0.297647508561168 0.10582027049493074 -0.2911889855186075 -0.1103048843102073 0.025430636683599787
61.0 0.057558918745570425 0.008343840791762735 -0.062219206891895126 0.30849502969638654 -0.0629517437863707 0.30484035379411417 -0.09181023482688287 -0.002696891954977323
61.5 0.09039422160666923 -0.0025199847039253046 0.017463598854386832 -0.3111942711854275 0.023852733653691276 -0.30596256848247033 -0.07453945692067006 -0.0129669402949841
62.0 0.06167029200077355 -0.04075300528959678 0.02510971145601704 0.30549921033495603 0.015140559361888179 0.30726047921379024 -0.08676342620174658 -0.0038808768759298565
62.5 0.018836765696722775 0.0009609319676236661 -0.0679473785774652 -0.2946365459533909 -0.05992160585608804 -0.2997174976651554 -0.1280740945289954 -0.017378266477651828
63.0 0.06696284672997027 0.028867585435055267 0.10741990464148318 0.2805436952952901 0.09686177770226391 0.28863255200613264 -0.12223301725705409 -0.04614009906057999
63.5 0.05510831185518419 -0.016039956228731653 -0.139203502834657 -0.26595967542409793 -0.136864069431017 -0.27822589296621714 -0.1024071714794196 -0.00376745648224897
64.0 0.019388671249183056 0.04594247293412274 0.1662139797619416 0.23944118496945777 0.16945211633528012 0.2502757901067239 -0.15085088298023774 0.03177421620450943
64.5 0.11380880235573008 0.06193870724428463 -0.19712852605242312 -0.20951786678455156 -0.2008808625725254 -0.22717249886820812 -0.14921604592453827 -0.015035246579506887
65.0 0.09264170873883833 -0.02105631867145882 0.22462805880054898 0.18666471796554387 0.2370790167586663 0.19439326628270817 -0.07576830984692884 0.006279443258834009
65.5 0.053547167124151966 0.044392477509986004 -0.2448950570414387 -0.16103142984266242 -0.25444546884858926 -0.16116239834991986 -0.10438058392958534 0.06317882976799134
66.0 0.1476382455407828 0.02453651511599072 0.25838398713516747 0.1231516943616709 0.27780896131939076 0.12230160204673254 -0.1367806992840341 -0.006947834872021402
66.5 0.0794637697554274 -0.06227131908471839 -0.27767577826039574 -0.08543927848782465 -0.287232488479981 -0.07728869116143172 -0.05775600546971071 -0.03824101363822899
67.0 0.042627682910073225 0.03394561430531466 0.2922119755810278 0.04829184547355589 0.2927930188356863 0.04534230713516307 -0.07600582495931994 0.0321629442765079
67.5 0.13381396944680352 0.004165881277794387 -0.29113798631912624 -0.006969349743228268 -0.29177858754689784 0.0038723587692761365 -0.1564910598794661 -0.014407818566454757
68.0 0.04928770532863754 -0.049278186403373024 0.2916740152318463 -0.03507007698845026 0.28401976766570874 -0.03831854363322571 -0.1068182374066985 -0.06781458282550418
68.5 0.05534526602175599 0.05805521074185008 -0.27951038076662044 0.07484883195597096 -0.2807790576596291 0.07632671161025642 -0.08752231632135106 0.016222854991304565
69.0 0.14611950069266239 -0.0036755852162842647 0.26008144236306585 -0.11212470655915383 0.25632839238775673 -0.10932579709576787 -0.17034957137949464 0.0267290158561463
69.5 0.058104542409128296 -0.04545834530673027 -0.2431501256164111 0.14890657735697518 -0.24599286143012597 0.13889305520835135 -0.14153368239750108 -0.0325541848366465
70.0 0.08319483836151047 0.032141524916132695 0.2226900799983925 -0.1739628675822277 0.22188752115726834 -0.17369797537714915 -0.07652458266147068 0.02516321067650792
70.5 0.12979477922257784 -0.04438219193696642 -0.1930280760069452 0.19367508295547556 -0.1992217077020485 0.19311365373285397 -0.12576845116169655 0.05610039147603451
71.0 0.03328801167124078 -0.055690984107725265 0.16102637429675326 -0.21853375982095388 0.17233893576476056 -0.22222823884664597 -0.12244955103080991 -0.01142771128872152
71.5 0.05556134693024151 0.014981762869580181 -0.13554056660690783 0.24039170759089246 -0.1397681841666785 0.2443868917962346 -0.06336687590314857 -0.009187727124652207
72.0 0.08004897125855895 -0.03342880766333303 0.10729478751913746 -0.25367799628151105 0.11190515314814423 -0.2601432013340117 -0.09034661147553152 0.022141963096082688
72.5 0.01726738546424578 -0.014241351382669873 -0.07062710447890173 0.26333845820007623 -0.0705391768763275 0.273404645093628 -0.12171606744288349 -0.02058586743307167
73.0 0.05394331387092155 0.03839261766684683 0.03350906841655223 -0.27377050508034595 0.03414400476185852 -0.27776093773683175 -0.10126659434597075 -0.035981521012430816
73.5 0.08497873904157965 0.0037652976429838458 0.002980242386332596 0.2779298162277005 0.004158065127286148 0.2825707043602111 -0.11001148331269237 -0.00520637943290772
74.0 0.054811681352246296 -0.0010488314838482302 -0.04110339213273426 -0.2732333760701482 -0.044097369147750066 -0.2779023661084169 -0.1351264181007035 0.002780642929515114
74.5 0.06984606695083974 0.02474162963880547 0.08210552880485453 0.26677790399330126 0.08189755229098668 0.2686301755492408 -0.13580841333392155 -0.0013821722183021184
75.0 0.09244277338367093 -0.0006818935167409254 -0.11834562602460978 -0.2508963176226566 -0.12086502206326846 -0.25601175388643116 -0.11615721081512838 0.004766558136581333
75.5 0.05940482852615587 -0.022639321486526948 0.15287888681694753 0.23146134928703602 0.15311022971986263 0.232511012072445 -0.09897537170841181 0.024723787870683595
76.0 0.04304426279406844 0.024171750422111844 -0.18212733511467855 -0.20278903161286127 -0.18196679453024517 -0.21008746366002579 -0.11339490693219022 0.027306311046803283
76.5 0.09243495734370923 0.022524387678777163 0.20689704085693617 0.17190558255738533 0.21187579568776396 0.1767464385710838 -0.10709656570478775 -0.013006846158525591
77.0 0.059883189712096094 -0.009854194837040335 -0.2242351683508253 -0.14385174889282293 -0.228261349971655 -0.14591750944742787 -0.06830599699183221 -0.012778270910129409
77.5 0.05535278631159781 0.052068860336467376 0.2367564145010728 0.11154876996933466 0.24637255219111384 0.11547102850168951 -0.10153733660048378 0.015887807134796175
78.0 0.13090085975213728 0.024956534832519195 -0.24401730429265955 -0.07499768410542125 -0.25335079724504794 -0.0742541971773345 -0.14342021573507954 -0.0297228398336747
78.5 0.08177940915509861 -0.031041278163379673 0.255215543933032 0.04405312539511541 0.25817560518580934 0.045615723765000796 -0.09712405721352281 -0.04394518256711361
79.0 0.07556310025496248 0.03731116520400273 -0.2577110718682099 -0.0157507472615501 -0.2612393891753531 -0.008808023754496725 -0.10879152412470815 0.025876505648963405
79.5 0.1432779107700828 -0.016613028820492256 0.25088944447894784 -0.016396973546680613 0.25275646513564365 -0.022293155548288646 -0.16999144137087685 0.008514835147642008
80.0 0.051733056949480015 -0.05817972608601589 -0.2488980977766868 0.05278690074376417 -0.25327185931130397 0.0543367778728146 -0.11641731547497626 -0.030441274224590194
80.5 0.05955929003550298 0.03240280387345133 0.24472485399380342 -0.08615283182048726 0.23996627209167365 -0.08837249357529849 -0.07994236299263896 0.0407820202180358
81.0 0.117358391212761 -0.02847024281728599 -0.2317194856031118 0.11539226606356635 -0.22819225828877768 0.11145671608901625 -0.1405281049854239 0.0424978512087519
81.5 0.02517562370660465 -0.033573488010623403 0.212381600421448 -0.14727459711699298 0.21371730519741752 -0.1509814521846312 -0.11102160512130904 -0.031854255880952004
82.0 0.0753941171646954 0.052316585696914365 -0.18895875572089163 0.17824116776683016 -0.1899459332059907 0.17246720333961513 -0.053584382051933485 0.0055367285806450115
82.5 0.11933151686487169 -0.03089668753625828 0.15959326296139748 -0.1995545984840964 0.16850309604225758 -0.19629286141732408 -0.1149678984321559 0.03011080055589601
83.0 0.03422360045097396 -0.025632956416649987 -0.12938932769457911 0.22303132151559163 -0.13425900952491002 0.21854830679998144 -0.13362538641671887 -0.04299289960490102
83.5 0.08711317802752712 0.028952353776311793 0.09914907633608196 -0.2343161858614676 0.10865844245568089 -0.2359931620225838 -0.07556979166533931 -0.029397816741416675
84.0 0.09719949844127167 -0.0512528997562308 -0.06733456604556458 0.23991036656585588 -0.0719579022757164 0.24870411485911303 -0.12022226787134896 0.025570838729174164
84.5 0.017334014067004182 -0.019369303244360613 0.030117833305616487 -0.24426908948032894 0.036189569559203535 -0.25265477042032797 -0.15781914521411206 -0.01153235611658554
85.0 0.06838345652095537 0.027040762740194634 0.0022477770230556753 0.248797952518059 -0.0012196655597654746 0.2586427811207019 -0.10414816980926501 -0.016369046208832536
85.5 0.06655601213511789 -0.023864310310613767 -0.02780940948983556 -0.24312748928693534 -0.034792328457460185 -0.2516225961435446 -0.10322913531990903 0.03493643766833992
86.0 0.025825614986079725 0.015051785712854085 0.06004018500354923 0.2348397103693106 0.06671346490613471 0.2447578944286406 -0.130551333925665 0.021449951601276825
86.5 0.07733112149338645 0.042189552262632754 -0.09288478348904107 -0.22480750798338917 -0.10258769944976492 -0.23050386530947636 -0.1004442148621607 -0.00688962197043172
87.0 0.08852883252347087 0.001702966371235087 0.120913669100213 0.2144214391347015 0.12871605095060404 0.21204113258807603 -0.08205798212223937 0.005807788385199109
87.5 0.06445769205410364 0.011228953647612375 -0.14751511493676436 -0.1977187320446592 -0.1553479031007096 -0.19293203013375046 -0.10085182842458293 0.004090353542886661
88.0 0.08689855771747765 0.024177598674170932 0.1746483612169136 0.1740021388584159 0.18005110205140745 0.16748142589762632 -0.11060498208847508 -0.015274876623351228
88.5 0.09865988939439223 -0.009088363376736412 -0.1983557788958932 -0.14901596999570613 -0.19601883998277495 -0.14138521332081552 -0.11236630495725422 -0.025875244758198208
89.0 0.06123819885135816 -0.013455581483334705 0.2172269209239546 0.11855341675142993 0.21567213899184765 0.11740131679554275 -0.106508434248415 -0.012017681519581148
89.5 0.06759049449631378 0.025614401491312448 -0.23207489399981057 -0.08478115540014851 -0.2261580637821001 -0.08505050258370042 -0.12627706535118502 0.00870521572251072
90.0 0.09966582813274753 0.001889766067830028 0.23959558381119236 0.050736520377984935 0.23179601976281228 0.05698253408801156 -0.14159625011377464 -0.005661593126335348
90.5 0.059569110472462404 -0.010066761109837006 -0.24098939561127564 -0.016665571843469774 -0.2397357081857465 -0.02448737056983073 -0.10376433852561488 -0.005773549170687273
91.0 0.08114512938048495 0.04334751609248067 0.23768044731706023 -0.015548041498502153 0.2366130987543352 -0.006918609034565746 -0.10091804191178999 0.03726573396709846
91.5 0.1268441161777886 -0.00931719589683472 -0.2273211124081226 0.045981170420625515 -0.23939128065267265 0.037029802472058615 -0.13498325732865762 0.017790750495051338
92.0 0.06414045342531333 -0.03176429020320181 0.22236652963193723 -0.07865799680152448 0.2311489961960107 -0.0755677290240039 -0.0928209628771436 -0.024488429755342343
92.5 0.08579758633190468 0.026206722498094054 -0.2090091412554106 0.10085741447374491 -0.21845427543873147 0.09973627987137326 -0.06829612644772304 0.01684542534342729
93.0 0.11863375326504494 -0.043738570746656213 0.18978136115825048 -0.12127818825172253 0.2033682840107527 -0.13218208215756225 -0.12992717380610294 0.014932612905217805
93.5 0.028330548971419907 -0.03773506154897625 -0.17255432104017202 0.14937322776726827 -0.17771261699105026 0.15792356872510982 -0.1181649629461667 -0.04762745655222081
94.0 0.07251655785505454 0.031105495771376605 0.1536626725761227 -0.17147429722746693 0.1593201899092164 -0.1808877562296291 -0.07830915155089099 -0.01038613779026841
94.5 0.09369833310513986 -0.04198313066987467 -0.13334343250753264 0.18600643486480486 -0.12681257801092544 0.20009965204213043 -0.13666338016233348 0.02940499793345256
95.0 0.014561741404687226 -0.006148293179158071 0.1049374507928593 -0.2053188596090286 0.10038520013175668 -0.21026553694141223 -0.15350670498721553 -0.026863896704148765
95.5 0.08871825678521612 0.04577396469128705 -0.07490311761616616 0.2191101742344299 -0.06913419041546602 0.22470208112014856 -0.08442055820505516 -0.008279765912596925
96.0 0.09485794079390426 -0.038241893215098285 0.04510164997056606 -0.2286928705219637 0.038472697170900995 -0.22406646566779373 -0.11346834370715325 0.050533302506813614
96.5 0.028684162520149922 0.004064321799929032 -0.01127263632720474 0.23032513531694537 -0.010361140109476962 0.22789109822102058 -0.14230878549665654 0.001768692879555124
97.0 0.09952087690646616 0.026575400732273317 -0.022087069695974057 -0.22987241850048928 -0.023982153508506635 -0.22674960952468146 -0.07904535112686763 -0.019160959828453016
97.5 0.07320589994454996 -0.04373563373498345 0.04940251212864039 0.22057044014920385 0.04721741881576882 0.21885114477118764 -0.08025834731680942 0.029066149165210678
98.0 0.024746551160581436 0.01182537101811175 -0.08220562592247789 -0.20809376087019515 -0.07780314659901288 -0.21122070308026886 -0.12737492629598807 -5.0461949261757914e-05
98.5 0.08514309438089238 0.02609464136472532 0.1102098753353695 0.1963490904289234 0.1053674850234393 0.19625184634094808 -0.10066433793801771 -0.03816793524427681
99.0 0.06433934439453004 -0.016688791517593733 -0.1309844613313964 -0.1817452303445049 -0.12829526250949388 -0.18575095975620096 -0.0900239477337888 -0.0027059217512797806
99.5 0.04602958250124054 0.03209387282094562 0.1507747191251064 0.1587247915729079 0.15158769015434792 0.16396049321542486 -0.1333946958223915 0.003849366217785191
100.0 0.09965666062351537 0.03227832894885952 -0.16946561459475312 -0.13548373182916387 -0.16910032776512313 -0.14298128138358543 -0.13180394959577177 -0.018411290272357585
100.5 0.0884541989671038 -0.006439293744089923 0.18494767503230403 0.11476248587200069 0.19065758891087742 0.12120842426844894 -0.11084742264995581 2.5866888776358946e-05
101.0 0.0734333795889464 0.012292669865923058 -0.19990243135445065 -0.09150137971302248 -0.20582545669631336 -0.09353073162388839 -0.11730079968533114 0.018957423187421843
101.5 0.0979595189216578 0.011151010697453893 0.20756845172228836 0.06473838034040617 0.2175264770958795 0.06590874420566477 -0.11902596271602836 0.01356920478134015
102.0 0.09340123117843925 -0.021664101027606717 -0.21655883128878628 -0.035069364059016124 -0.22550879092300258 -0.03430071638093668 -0.10832091929121623 0.0025450905859043436
102.5 0.06058065135854998 -0.010444378905432143 0.22391482993707448 0.003779701634178409 0.2264042962190114 0.0018229382642743852 -0.09151698291861644 7.638267780949649e-05
103.0 0.0808868313490691 0.01638680478607417 -0.22069706611997583 0.027659848420318555 -0.22380564768656155 0.028749770788289386 -0.0970243038639452 0.010131390590287278
103.5 0.09230471499309727 -0.01603367153433946 0.21565509623382445 -0.05833947012530062 0.21698203136450178 -0.06230229056738091 -0.11830707749818159 -0.007219675073722209
104.0 0.05297860031044521 -0.006085485925127364 -0.20122711083629768 0.08875630609999692 -0.2011263911488312 0.08859330259289591 -0.10486890081156121 -0.03026521468956536
104.5 0.08967584862513522 0.02880760891320813 0.18426499299211743 -0.11393362311501387 0.1889420605967169 -0.11674024727689691 -0.09869771439485642 0.002540076498744804
105.0 0.1069249145280209 -0.029875885423137488 -0.1632920422549693 0.13566690381023552 -0.16486255185127763 0.13798480515361597 -0.14128446350958493 0.012122770066859948
105.5 0.04791589447167281 -0.018305729944993892 0.14207333277365727 -0.15712771400328351 0.14605577094298006 -0.15704001603620973 -0.13430266535606022 -0.02483077395188112
106.0 0.09153361652248762 0.01818630592326985 -0.12207443854360064 0.17192249360973527 -0.12204508253395978 0.17669525039881404 -0.0876441874305571 0.008870193428664682
106.5 0.08914521533342981 -0.05036387435082744 0.09878502782701935 -0.18002618634902215 0.09845697219303554 -0.18425203495064107 -0.12525565045262269 0.04184566574728073
107.0 0.019852108611664008 -0.008657344094121982 -0.07008611708270007 0.1905834892900045 -0.07283225089926015 0.1956135874157837 -0.13210386084340128 -0.01198267267680517
107.5 0.08525458998037887 0.029358860815763176 0.047104900859950276 -0.20296753490701894 0.044600182005771566 -0.2016261887345965 -0.06910057798398173 -0.009665733238528084
108.0 0.0698113872690798 -0.038133062150606994 -0.025690660611801214 0.20401214890761957 -0.02359477806163269 0.20556239913347893 -0.09595404695398145 0.03565603905016881
108.5 0.023398028936729043 0.024168616346904436 -0.002613530695772206 -0.2031690862464113 -0.007510983306262812 -0.2077010038361843 -0.13655950025211847 -0.015961619688059706
109.0 0.10449934548200683 0.035013853250856306 0.03338854527131533 0.20292281902508 0.0330195222812645 0.2036959709798046 -0.0863961792178021 -0.03913039802010076
109.5 0.07460339218256615 -0.033390460191041506 -0.057856210195452756 -0.2010375946793881 -0.05751766816357508 -0.20159912584205522 -0.09428078195505298 0.018190895452725772
110.0 0.04107745775349718 0.026203252510205246 0.08651149983092637 0.19063958712500514 0.08512340894941597 0.18644653941579442 -0.15034648419201302 -0.000347468256038705
110.5 0.11125418979220236 0.014478031012971472 -0.11343683245420484 -0.17719827546154696 -0.10730698233879132 -0.17666320059172574 -0.11745926014384166 -0.033555224933951765
111.0 0.06217714643515089 -0.035513342446731565 0.13645598369986206 0.1599761402366301 0.1360713854239018 0.16350900065248145 -0.09251904349767535 0.018157310057412838
111.5 0.04544346456050972 0.029201657760618775 -0.1561052381179658 -0.13560630619079103 -0.15379160023910085 -0.14205554439073373 -0.13670935316531388 0.02589293993975286
112.0 0.0996455299132325 0.013192390501322624 0.173039005317397 0.11073513623849268 0.17416028846689005 0.12091553071652468 -0.11874535996203747 -0.0129844017257733
112.5 0.06343685356447282 -0.014029686691858917 -0.18316741400613012 -0.0879440172737726 -0.1880560554975733 -0.09251954264276925 -0.08494205661543992 0.006444467810305564
113.0 0.0654591236571168 0.03367277873203643 0.1905829105584056 0.062139600043245244 0.1975738223381495 0.06764871177443584 -0.10726356014865715 0.019846343959878186
113.5 0.10708070133493622 0.01135932284955292 -0.19480791621714136 -0.03509221099266273 -0.20670970464921273 -0.03745100143588597 -0.1147362047602698 -0.012467920856766372
114.0 0.08271561326813326 -0.015200167180640708 0.19793372779644122 0.010846610967656491 0.2050037680409952 0.008270462440620342 -0.09773385247279358 -0.016650869202471892
114.5 0.07802875616858637 0.008261582352525295 -0.19750566077163303 0.014166039621327103 -0.20413191331934577 0.018480330359317464 -0.1065067563881708 -0.0027636417633923574
115.0 0.10052039624960028 -0.004469520989163144 0.19353891742959037 -0.03862001886432345 0.1977335319020684 -0.04693211532672346 -0.12379699878365563 -0.003947918416016506
115.5 0.07938857657090026 -0.02848280357895121 -0.18938558730520816 0.06420346496580547 -0.18601759844819052 0.07037157969719819 -0.12589351095738566 -0.007356749841681253
116.0 0.05633050036636923 -0.005444188455940185 0.17695870659140336 -0.08930471245682091 0.17599053386011676 -0.09539015127717282 -0.11528739855959064 -0.0039550213450825124
116.5 0.08260234880773602 0.006758558382673292 -0.16558388385617334 0.11327636563377967 -0.1598184441888311 0.11610998781039022 -0.1099932635572136 0.016102709905541593
117.0 0.0756056955049556 -0.022588460394754768 0.14983522711654756 -0.136703642012836 0.1434738469032309 -0.1329969884262013 -0.12390265569500994 0.017647657899144464
117.5 0.0479855687465823 0.0041695399812448075 -0.12815811326770604 0.15686260692300244 -0.12412399000440372 0.1520359966521013 -0.11144130066632033 -0.0074379624281953926
118.0 0.09438521527330866 0.019134215605488128 0.10259957164124985 -0.17137095103596908 0.10277341571151712 -0.16547604777186614 -0.08171688349124297 0.005669675900380721
118.5 0.08364519840705585 -0.033329823598889 -0.07752866460334362 0.18300457813649781 -0.08198246361797021 0.17672190881622718 -0.11054640762697228 0.021172237714095328
119.0 0.04378066952083296 0.002044417301947037 0.04959966666759866 -0.18996025159708155 0.05520199409035131 -0.18620096978286255 -0.12311927618893012 -0.023021967383109868
119.5 0.09652969274763477 0.012071439254396858 -0.024259422494568226 0.1925914026223949 -0.031964917453638365 0.19428813429902947 -0.08555980288297323 -0.022503024644430367
120.0 0.06460507261420502 -0.04200779239359569 0.00045935453121429736 -0.18878283491012623 0.005613624016198663 -0.1983903157516007 -0.1104941025524177 0.020517406418204206
120.5 0.029161651183549964 0.019671065081343007 0.026510599430654466 0.1866676709008368 0.02212781012978975 0.19202566444638627 -0.14783549668141657 -0.012010403551617001
121.0 0.09840919900572527 0.02187396258032904 -0.05006539666320246 -0.18063001518059854 -0.04767353512158239 -0.19233712546412685 -0.10232969408342614 -0.02656466830054107
121.5 0.05666403007227067 -0.028099186875369712 0.06840820656858394 0.17390523157268079 0.07574422236139013 0.18172240352934235 -0.09928025445689531 0.03107270928455771
122.0 0.041021188403544025 0.039643395926305766 -0.08979795653947706 -0.16006445485455106 -0.09515623256494334 -0.16745970536282226 -0.1464580616580562 0.015514233315472543
122.5 0.11659357269310092 0.018185125909229122 0.11165016371211026 0.14796110157214556 0.12174740451332 0.15406103058372092 -0.10590462656970136 -0.023570260680847936
123.0 0.0639133661038176 -0.027007986302788764 -0.13174263237474337 -0.1365123594648826 -0.13856111735839827 -0.13515070332500725 -0.07634088260923476 0.01995645909481436
123.5 0.06418127141085206 0.03647154577049989 0.14854406563884923 0.11849451748984936 0.1541375858424469 0.11507068653596869 -0.12670865767787123 0.020770850578633565
124.0 0.11372116716134434 -0.003530272798091334 -0.16290183023257213 -0.09639139738048559 -0.1672926129293894 -0.08947531596159167 -0.11212555316865044 -0.03153459558872164
124.5 0.054033507471809177 -0.02733223190749455 0.17692491699462365 0.0737700120286397 0.17470531570287212 0.06795556753004042 -0.07924757225470026 -0.007862883415055854
125.0 0.06512289798657435 0.031405582353267666 -0.18582992637111498 -0.046742183225563685 -0.18197378771088865 -0.04326847979735764 -0.12189091178102508 0.014601453342645994
