! Created with skrf 2.1.0 (http://scikit-rf.org).
# GHz S RI R 50.0 
!freq ReS11 ImS11 ReS21 ImS21 ReS12 ImS12 ReS22 ImS22
1.0 0.4179091992067517 -0.7778773183851879 0.000345664719765596 4.1102994634827966e-08 -0.0002207780828352572 5.92949660607016e-07 0.4246348992454013 0.7354162771661852
1.5 -0.804239557146474 0.20334258010018177 -0.0006939894876180535 -3.0601387377045883e-07 -9.376296828088153e-05 -3.260694871479089e-08 -0.8491898487597446 0.16592027965103526
2.0 0.6523502688312516 0.5361933129659392 0.0011719730477861557 1.2470036229363112e-06 0.0013473088366306922 -2.33242747847736e-06 0.010751619859598372 -0.8093329823683151
2.5 0.2968534428752235 -0.7604229920388139 -0.0017411968125819717 -2.2336520783535883e-06 0.0005600670702503688 -1.3283465706284697e-06 0.48579455256084125 0.5905953843895694
3.0 -0.7117206723246304 0.2927490147645729 0.0010283103302603268 3.5016741567026872e-06 0.00011116670282749923 -2.490525063151713e-07 -0.779342900665988 0.2375847637191197
3.5 0.6674384403024296 0.4440167384014932 -0.0006440979184248046 -7.092716384680648e-08 -0.0008225778310777223 -2.0240240185341895e-06 -0.08843842874155583 -0.7566533179268692
4.0 0.2073891032842274 -0.7473160371019445 -0.0021804435075163395 4.147681038663995e-07 -0.000301074939734549 -9.8277929614073e-07 0.5201762530440588 0.47725100145098565
4.5 -0.6343878825500143 0.35181940859137145 0.0007367727680501686 -9.11595208818023e-07 3.233349643101256e-05 -2.2073251380942294e-08 -0.7203660489114687 0.29248645157679953
5.0 0.6769047480743658 0.3695550496567189 -0.0012360169422265576 -1.5424577312140354e-06 -0.0006198907622652675 -1.0809427396157259e-06 -0.16843801940092357 -0.7087513740698687
5.5 0.13010206595726864 -0.7251512591616652 -0.0012398576990504122 -2.4516861936091962e-06 -0.0008679505446607292 1.0238135115256682e-07 0.5422850807692492 0.38198169594689474
6.0 -0.5669837849259057 0.39870702412165865 -0.0004124092825456937 6.481562804230461e-07 2.9965118720016235e-05 5.852286971065031e-08 -0.6648777161387706 0.34196677861619634
6.5 0.6788613625846935 0.30436723636619906 -0.00015166544119691352 8.44966175555611e-09 9.088510250395902e-05 -3.168424428476042e-07 -0.23187860828945964 -0.6631496307155114
7.0 0.06502292180454541 -0.7014225390733931 -0.00010816013413504214 2.2193935687512917e-07 0.00014875153143504614 1.0979959838796779e-07 0.5476538671816865 0.2899179108203283
7.5 -0.500850274852136 0.4364988965469848 0.001354918598403307 1.8712130420166858e-06 -0.0013820187168660093 -3.825888198827195e-06 -0.6094255343712733 0.3802100843028964
8.0 0.682256306863747 0.24162973794752027 0.0010314716002510333 -2.513444327501802e-06 -0.0003602980805368422 4.3819227191854896e-07 -0.28738269676410083 -0.619223557348
8.5 0.003935271484066646 -0.6757018722506096 0.0004933527795271534 -6.874335980625302e-08 0.0004940998094427357 1.2138776157327273e-06 0.5499552939291895 0.21044958026753616
9.0 -0.4401426069517894 0.4683134354959813 0.00036980545553884294 9.536212398414966e-07 -0.0009388633878888203 -5.347446192469885e-07 -0.5583010520377562 0.41052677919669195
9.5 0.6801982246158004 0.18596719102420675 -0.0006621922893969656 1.6138741720320196e-06 0.0018244444856297154 -8.224182291902457e-06 -0.3329170514050514 -0.576172130199238
10.0 -0.05098951109115656 -0.6514745076593708 -2.702297477465818e-05 3.021063365282545e-08 -0.0017026877865128531 -1.8103941788676672e-06 0.5434225757822305 0.13688567891789885
10.5 -0.3814782290709565 0.4911868750342101 0.0009207397278079355 -1.4598912887233013e-06 -0.000249546328365977 -4.122568807318069e-07 -0.5063034754481572 0.4394356191829653
11.0 0.6736016940220988 0.13403242941568505 0.0007765082213363663 -3.0448619302142814e-07 -0.00047184636840798147 7.906887763870847e-07 -0.3737727733558116 -0.5307963952537608
11.5 -0.09869094900638402 -0.6206485167454366 0.0003319344490526289 -2.499994542043552e-07 -0.00271297229665735 4.1350268486033706e-06 0.5317238281167007 0.06628281174477196
12.0 -0.32623960436263627 0.511569207733245 0.0008806685119315121 3.846968797435303e-06 0.0011868644927742658 2.4458233116995377e-06 -0.45538719524155047 0.4603153004925667
12.5 0.6637775709607483 0.0881535368416843 0.0012703276777113073 -4.0164548234844667e-07 -0.0005310323638301653 -1.2045822809483476e-06 -0.4080521632825275 -0.4899376454933994
13.0 -0.14517727250628715 -0.5883270753742048 -0.0006958501363315972 -2.320628869571023e-06 0.000713892348189038 6.087924638262376e-07 0.5155517372441518 0.004167780361385659
13.5 -0.27279649523223287 0.5248738715476421 0.0024342480414655384 2.9963733099133144e-06 -0.0002720270942007517 -5.695290960293557e-08 -0.4067353077973195 0.47568711439976225
14.0 0.6517300153537094 0.040854492589293724 0.00028708116412619713 4.651436919813059e-07 0.0015289424532127587 -4.64578974421498e-07 -0.43752312106684554 -0.44734076213833207
14.5 -0.18680457643819556 -0.5562591562315182 -0.0015428905829374775 2.838563521669094e-06 0.0009699504365385357 1.9645683611553853e-06 0.4923122571503915 -0.05248249554811001
15.0 -0.21993317103989987 0.5328056516074747 -0.000650658278102757 -3.343960923544257e-06 0.0016522537478463096 -3.9515218452045565e-06 -0.35816325049310577 0.49084845648459624
15.5 0.6408556280884913 -0.0034082936017341614 0.00023646510346042978 -3.4185377015558674e-07 -0.0014891384267645615 1.2322210016440164e-06 -0.4600395847982415 -0.406023931523077
16.0 -0.22239386757825333 -0.520609278582062 -0.00046844055256413993 -9.136409598631071e-07 0.00041120576170656804 -4.864522050266554e-07 0.4656308906320987 -0.1052485493519995
16.5 -0.17056843120200113 0.5400966755866281 -0.0011240340928667944 4.353737427444134e-06 -0.00023184857133826735 8.113790457124698e-08 -0.31175524950219285 0.49807057613292666
17.0 0.6250845915699494 -0.04352318850481407 0.0003413874622360082 2.8182340148790487e-07 -0.0004744363889467434 -1.1075586842912136e-06 -0.48173604031429573 -0.3635510436291626
17.5 -0.2561647477343053 -0.48554328392174956 -0.0010557717186938937 3.363756238632658e-06 -0.0002505221456021261 -2.639719490120675e-07 0.43726812663247294 -0.1528128209693148
18.0 -0.12445545018270336 0.5407551928076817 0.0007981387063748513 -1.974668351461432e-06 -0.00042947976329964 -1.8931771052641714e-06 -0.2640521071691544 0.5018414480499138
18.5 0.6096646085721174 -0.07979004738998279 0.001348192679664253 1.528868311252574e-06 -0.0002756601252850954 -9.874263222870087e-08 -0.4988895744224328 -0.32463972231329896
19.0 -0.2843339738687951 -0.4490509972293024 0.0004513442626849109 -7.216755256896984e-08 -0.0008391202007332255 1.1078980254039305e-06 0.4063684252904897 -0.19490377896351013
19.5 -0.07907511723559978 0.539779129177527 0.001590797099834782 -2.2124060833004747e-06 -0.0008522363369315308 8.455476944129146e-07 -0.21741783408640672 0.5028820815968505
20.0 0.5904937795318873 -0.11781568809558908 -0.0005760245613057769 9.710051583605196e-07 0.0007581232281694174 4.2128899094968966e-07 -0.5110924651805713 -0.28366911285950175
20.5 -0.31027877466903364 -0.4120446078985315 0.0012222512883797677 3.6234225677632775e-07 -0.0017398954461970012 3.3698707835949717e-06 0.37594096999026394 -0.23299692379141418
21.0 -0.03425367985690677 0.5358049437140299 -0.0008551138265457634 7.40666373298779e-07 -0.0004942587239708253 1.1427530603366518e-06 -0.17488223548461135 0.5001846774279445
21.5 0.5701554733017002 -0.14993404794083076 0.0003239561527391296 9.985050055815642e-07 0.0006106993427181422 2.7220982044299226e-06 -0.5226744512035255 -0.24521846105538483
22.0 -0.3305298860450671 -0.3733760198205189 0.000517458134999747 -4.431931738564658e-07 -0.0009299091587365781 -3.464248236504603e-06 0.34177983513598736 -0.2700878005160876
22.5 0.004598533923520705 0.5298617384124428 -0.0003405943821183067 1.0662370974637245e-06 0.0005206356436130286 -1.1797446008468194e-06 -0.1314832994576022 0.4929549194852194
23.0 0.5487841510304834 -0.17987109564649284 0.0008826776266950865 2.9413943714752807e-06 -0.0010089059089473207 -5.602191583032277e-07 -0.5315089865916431 -0.20865258010728593
23.5 -0.34968765624671927 -0.3364127169500075 -0.0006959515637065278 3.144428567662214e-07 -0.0008869519123142523 1.3720914960967407e-07 0.30443948952567207 -0.29863666821524676
24.0 0.04296749496750198 0.5221905687283954 0.0006520830882983795 2.361503476784762e-07 0.00028377638431844324 -1.8633777633373357e-07 -0.0915726757205827 0.48714924381258046
24.5 0.5282853503524589 -0.210015420560856 -0.000248923309657099 -2.2499338016290933e-07 0.0016984320947868053 -2.3288582110784225e-06 -0.5350516019096302 -0.17156918637457838
25.0 -0.3662983245188062 -0.2976222955538245 -0.00026373287493053674 1.5231695003204509e-07 -4.2555556191977947e-05 -5.995637208838152e-08 0.2687645213182401 -0.32517695879071534
25.5 0.07952296446258737 0.5103989739778904 -0.0003531530109396173 -2.912834744533916e-07 -0.001100282793861525 -9.506483254425134e-07 -0.051628398507081064 0.4729256069235656
26.0 0.5030094194868779 -0.23554147459627703 -0.00020784333656026998 4.5324284285866264e-07 -0.0003254699097931998 4.807604527861182e-07 -0.5390284460080376 -0.13367574777316382
26.5 -0.37869207575723624 -0.25982858472992976 -0.0016532637318081985 7.512748495078207e-06 -0.0006047635785602826 -8.028967886916656e-07 0.2303942587198593 -0.3453060075109943
27.0 0.11442368196997756 0.4958101744829699 -0.0007228121044204855 7.443521850279947e-07 -0.00023383627055206043 -5.376693059947965e-07 -0.01602832605922252 0.4591893981240598
27.5 0.47969291632897326 -0.2598506789504369 0.0004700077387160958 1.8145158605468062e-07 9.921636063111134e-06 -5.0094275266119324e-09 -0.5370714258145909 -0.09807622435665764
28.0 -0.3841928428477634 -0.21994726453126384 0.0004845382624858504 1.645870922564896e-06 0.00031107551676743284 -5.069158587752572e-07 0.19128689678843394 -0.36335070386991736
28.5 0.14722863046630083 0.4823556412344958 0.0009853593266513111 -2.9619933689939308e-06 -0.00035346261319332226 -7.689533027688248e-07 0.019540889586720418 0.4444138962281586
29.0 0.4539511548681845 -0.28426202610332424 0.0011226356738410373 1.2078818040466823e-06 0.0003458908880595704 -6.413188341517479e-07 -0.535200702303253 -0.06555050134815592
29.5 -0.39198043385144365 -0.18402945098711876 7.522014051597208e-05 2.0313846754883272e-07 0.001342051312185012 3.056208654856814e-06 0.15428485082681095 -0.3760405000640932
30.0 0.1782695011956154 0.46705055752877345 -0.00021961643590902107 -9.788429449978103e-07 -0.0012788888495148527 -1.178940780932812e-06 0.05301308981880151 0.4232708248919561
30.5 0.4273271807856513 -0.305540657465761 -0.0005119232293794795 2.117598617657421e-07 0.00021551617392536553 -5.617245579732377e-07 -0.5313962072744026 -0.03144502017729599
31.0 -0.3957634849861167 -0.1483880308263362 -0.0011732758856924188 2.7053942940854485e-06 -0.0006937269507408803 1.4267204562580663e-06 0.11816069580637731 -0.38795827916164205
31.5 0.20726110789892677 0.448022338077863 -0.0011602965925053836 -2.4057504295445727e-06 0.0010905899823989772 -4.8255154993042e-06 0.08462968070403169 0.4025783193928903
32.0 0.40098116699919134 -0.32129991071607533 -0.00025790170285091933 -4.3427101572260287e-07 2.7105330823951555e-05 -2.725503421185741e-08 -0.5250132270101062 -0.0007493565651823769
32.5 -0.39746603359370075 -0.11043903329227439 -0.0006898531254630604 8.588641658757936e-08 0.000184015966254461 -3.176128614014006e-07 0.08109558522860558 -0.39614117331393756
33.0 0.2342312349622551 0.43070886812576437 -0.000215399401236921 -1.4224082630114916e-07 -0.0008035131245620748 2.576491671634048e-08 0.11189132705093284 0.37688458805096287
33.5 0.37351589827813647 -0.33887043227110314 -0.0011370783993252993 -1.6798602183679743e-06 0.00029215514341856175 8.850901447545391e-07 -0.5179723289223545 0.030510137599658777
34.0 -0.39689061340417775 -0.07554795231197446 -0.00015194341405613715 7.401120949278742e-07 0.0013342776891988076 1.1568475878295909e-06 0.04660116641514527 -0.4005713488038377
34.5 0.2594508321676658 0.41074894916260724 0.0008062339527131402 -2.3959241896415884e-07 -0.001139643785953786 -9.708832358211374e-07 0.13845286018218667 0.351666600357344
35.0 0.3451927403225677 -0.35295099883292624 -0.002111538623725554 -1.764722763842706e-06 -0.0012425497395040855 9.174233024785599e-07 -0.5052815190368758 0.05869897695770971
35.5 -0.39124650179232867 -0.04146774955620669 0.0010069836836976514 8.32775885915793e-07 0.0011578514617440617 1.9912385317692094e-07 0.011717177420351103 -0.40323206463353906
36.0 0.2820710239423702 0.3917518896882645 -0.0003875059974183322 1.0361821060635256e-06 0.0006556540121834976 -3.0103318565623606e-06 0.16201433287214578 0.32570163924624007
36.5 0.31996932001920114 -0.36382797671237177 -0.0010677132723365462 -1.869115763075505e-06 0.0020249208339315696 5.788802384158484e-06 -0.4942423433720168 0.08612653814415797
37.0 -0.3863632002251489 -0.008352114269104717 0.0002687773812497218 5.299994420844115e-07 -0.0011875445957544779 9.889234820293044e-07 -0.020899075153462864 -0.4011346700265109
37.5 0.304697769978166 0.36982352106612687 0.0012094999464586816 -1.7621512820841029e-06 -0.0004066237826859257 -5.190784528968443e-07 0.18228979544212842 0.29853606858385817
38.0 0.29124580782047615 -0.37434256050081777 0.000321717392931942 -5.651453907415178e-07 -0.0006551199702986633 1.2664740257297796e-07 -0.48039507165567064 0.11399047790570879
38.5 -0.37734578209844616 0.023307320832893077 0.0012084515938519229 -5.6640412797679165e-06 -0.000528190264932041 1.0944437776785659e-06 -0.05292615155006457 -0.398090822798708
39.0 0.32429419257178893 0.34755495930454683 0.000445599430447273 -5.910128519962704e-07 -0.00010791616349626915 1.4371909353800728e-07 0.20184818482146644 0.2702414023898086
39.5 0.2623741932695637 -0.38343876342385985 -0.0006046472118156863 -1.6294523966032505e-07 -0.0006414844296293178 3.689449883023406e-07 -0.465690954877616 0.13968130735148931
40.0 -0.368429089745751 0.05465105301893132 0.0009599215042316842 -7.257206446056217e-07 0.0011022383932447226 1.7896257827579523e-06 -0.08626291396741248 -0.3942883893248421
40.5 0.34165969213710884 0.3236220601204997 -0.00017097430741554883 -3.3180962747578304e-07 0.0019816958977587305 -3.0974277394002643e-06 0.217643469131041 0.24205984839673364
41.0 0.23427200812838125 -0.3898994336725937 -0.0002167814987601903 3.9901182012483477e-07 0.0008528679534275152 -1.9362796186009648e-06 -0.44816179039781373 0.15961691801690306
41.5 -0.3566920984673131 0.082975389704426 0.0005312429046101646 1.162736840997138e-06 -0.0001764873452763014 3.252734443595782e-08 -0.1149773220300267 -0.38632427316433604
42.0 0.35730693515512596 0.3017575369087767 0.0005782968273364152 -4.043332082580831e-07 -0.0006839939263314815 2.9691917975465794e-07 0.22977763583948949 0.21119270009647664
42.5 0.2075549166666453 -0.39473004644802384 -0.0003780921109231391 1.04441280677685e-07 -0.000717381270170219 -6.375006396493038e-07 -0.43261186754854336 0.1831837021178186
43.0 -0.3417844131466755 0.11063705161538705 -0.00027753410178416016 1.3002059680772203e-07 1.013446361836625e-05 3.7113371307085e-09 -0.14350992866200768 -0.37732284739471394
43.5 0.3712750048456206 0.279306583944034 2.104856165150716e-05 -4.5754921548012595e-08 0.00018181996538167778 -1.485613636154564e-07 0.23907735454121237 0.17955179109750954
44.0 0.17846564333697565 -0.3981990807994581 -0.0029819196624938167 4.703311610412942e-07 -0.0005658462584891707 -1.2826425426292548e-06 -0.4115264054486696 0.20353370377220123
44.5 -0.32619285483652244 0.13758948930782156 0.0013852822692848263 -4.958077727841811e-06 0.0003130260368506286 7.601637202034034e-07 -0.1691807645364394 -0.3659019293539395
45.0 0.3829130808303799 0.2544464206948344 0.002596014157812134 -1.3837191944044218e-06 -0.0002917785823108358 4.6068566635809555e-07 0.24440021005741996 0.14792825705529894
45.5 0.15056607544309655 -0.3976244059538406 -0.0006983381220701273 9.825379677031143e-07 -0.00013494211396516194 1.9558538159344123e-07 -0.3926094660994775 0.22205845283034695
46.0 -0.3112457538473723 0.16279832510506062 -0.0005363628338414074 -4.1881548663687875e-07 -0.001477073593904736 1.865560826750554e-06 -0.19589686091495798 -0.35467052313230335
46.5 0.3929655380739845 0.22962386614595068 -0.00024482434320981147 9.833209392615507e-08 0.00011957472843175455 -2.124884279230289e-07 0.2513016879706785 0.11927641986679595
47.0 0.12434845253996693 -0.3990192801435727 -1.1026536859426154e-05 -9.174715718224764e-09 -0.0013843562396354812 5.083524985252765e-06 -0.3717208983763507 0.23907193713268418
47.5 -0.29286637756116907 0.18434433163022468 -0.000981663150633571 1.5741942904014391e-06 0.00017959896949831285 -4.2807775924085586e-07 -0.22014238041316486 -0.3414375565900129
48.0 0.40315893795247587 0.20549684441815766 -0.0011633063533354115 4.69345924370047e-06 0.0009853443886890078 1.5968467327135251e-06 0.25388778233390413 0.08743594597423561
48.5 0.09741094180351588 -0.3948433768610178 -0.00045857505394558836 1.7241631448774897e-07 0.0011376289993936695 -3.179512499320411e-06 -0.35253198301690886 0.25388897596746013
49.0 -0.27347762000439974 0.2049516938274244 -0.002077061025776129 -2.8497439078965536e-06 7.46504213578686e-05 2.511253014611924e-07 -0.2431307773778281 -0.32682514233995563
49.5 0.4112619057451058 0.180881409234655 -0.0007137436342756875 6.66710517305885e-07 0.000799764178173163 3.145463774568879e-07 0.2531473196320426 0.058291723529531186
50.0 0.07140159251135693 -0.39165569732763206 0.0010426379275086518 2.7795356037527598e-06 0.0007686493938746804 4.173564487081353e-07 -0.3273112542965051 0.26679872058366727
50.5 -0.2546307521530411 0.2246536207704612 -0.0007461978558939239 -5.288335226304952e-07 0.00029145321811756524 6.812310564516414e-07 -0.26306666003255996 -0.3088110177379481
51.0 0.4180058399363696 0.1569119344000252 0.000482858155518509 -1.36644198030883e-06 -0.0006412957238008065 1.1236645628547502e-06 0.2517781709481404 0.029134620101951243
51.5 0.044974404429784856 -0.38472967785794676 -0.000979076496762332 -3.669202771079892e-06 0.0007211821539122277 -2.1246811366364385e-06 -0.3053206157934803 0.2791821491611995
52.0 -0.23413213440765257 0.2432017207789113 -0.0016994408855828577 -2.0668017729562133e-06 0.00038710852684710354 1.91102937736906e-07 -0.2818432855598731 -0.2921678370077381
52.5 0.42094731455133805 0.13217699331271288 -0.0022656768606503412 -5.9124746198333424e-06 3.948268829960125e-05 1.0227527580403477e-07 0.24769453374081685 0.0012968737749887024
53.0 0.019891633170634006 -0.3771911952126748 -0.0007983431419387771 2.6740151440801556e-06 -0.0009234023469361198 -4.313177565163556e-07 -0.2834721655553429 0.28854678203273704
53.5 -0.2134916450823169 0.2579228830516786 -0.0015917337485477274 3.048449841590686e-06 -0.0006018052807666396 -4.5098877422185756e-07 -0.2988211643565831 -0.2752440762479244
54.0 0.4231123252159795 0.10916141027580294 -0.00196182485523286 -1.9623562165673868e-06 0.0003502155382694556 -2.4183325965742156e-07 0.24074275769912476 -0.02630050285778736
54.5 -0.003162922643153226 -0.3697671210329857 -0.002072709373043281 2.2034491008182175e-06 -0.0012686503709008288 3.868769972513417e-07 -0.258124516456324 0.2985280039957428
55.0 -0.19212162829896376 0.2747369140301943 -0.00012194091096556591 1.315005539822152e-07 -0.0001328208010707232 -2.3213731020880802e-07 -0.31486527484753335 -0.2586732197402012
55.5 0.42382891818802276 0.08694414829691172 6.896864809912604e-05 4.635368547418308e-08 -0.000662970169814004 2.1226916826184338e-07 0.23027838210953105 -0.05052505665441535
56.0 -0.026316386647141112 -0.35884761549268585 -0.0002920475492123582 5.7632134830926364e-08 0.00223628718677054 -1.4576095648277155e-06 -0.23514572283887225 0.3031026685499329
56.5 -0.1691192992032822 0.2859465388265345 -0.00026770331043901314 -6.718679981400039e-07 0.000316620351832732 -2.95176976919708e-07 -0.33062347490622795 -0.23762708953581185
57.0 0.4238815924746209 0.06206742838846169 -0.0012561941912343187 -7.72946334016564e-07 0.0016120032308725503 1.1305314272325116e-06 0.2212850481238257 -0.07716593740451189
57.5 -0.048170418325953056 -0.3457837374886674 0.00022802313050657074 6.176292762401483e-08 0.0003250307527419805 5.2321046164766686e-08 -0.21130689835485475 0.30612654312893145
58.0 -0.1465083485981283 0.2973195313058975 -0.0012732335086687568 -7.894531813244361e-07 0.0009655079904307461 -9.747867462123384e-07 -0.34325261701146553 -0.21810594826362914
58.5 0.42595077620272254 0.038725403636310454 0.000903105923360591 -1.3660989038505264e-06 0.00045477267405894455 1.9842475459682176e-07 0.20985520945540684 -0.10030921164825478
59.0 -0.06944836727170688 -0.33484322747174083 -0.0007638112320640314 -2.1001219392733702e-07 6.276974778905912e-05 -2.7171187703338892e-08 -0.18791467593404543 0.3110953885211089
59.5 -0.12349301389093947 0.30492627251477056 -0.0006369370717593029 1.0564545802759243e-06 -0.0006934062283784964 4.332612453632296e-07 -0.35411330477651837 -0.19686647210461347
60.0 0.42117505675880607 0.016645176957647882 0.0006588058242044486 1.1206943079555117e-07 -0.0008138208624823138 -2.1861603159635487e-06 0.19600521022315454 -0.12331851415918053
60.5 -0.08817281044980978 -0.32038319929625336 0.0016391989845535367 -2.5486567161196866e-06 0.0001916855649506401 -5.26754110262506e-07 -0.16472618797449207 0.3136733136219615
61.0 -0.10035767353105672 0.31307388586691637 -0.001860910168773255 -1.5413668399953442e-06 0.00044756541537436416 -2.0974455773469018e-07 -0.36418440074247516 -0.17568928384118687
61.5 0.41816586358670027 -0.0030000957237655587 0.0007510070181518796 -8.553832566659524e-07 -0.0008181622579020919 -9.710863687820382e-07 0.1824706788931611 -0.1431102223631914
62.0 -0.1079633183507475 -0.30612059687723686 0.001146320714217896 -6.470501713326441e-07 -0.0015726556683920325 -2.888117380802174e-06 -0.14157959543107468 0.31116357991330923
62.5 -0.07794541829769881 0.3176562275115356 5.3498623571573726e-05 -1.494066138780416e-08 0.0011402555044654013 -3.926807729549109e-07 -0.37201885391982753 -0.15627557397063543
63.0 0.4122808381590285 -0.02540187228321632 0.0012600890677042776 -9.275030946046763e-07 0.0002104906978835006 -1.2265853494608952e-07 0.1648004163614399 -0.16209366650601476
63.5 -0.12489992996028583 -0.2907936759545237 -0.0001085273401198721 -1.1842043394583772e-07 5.804768073283714e-05 2.5281061595702426e-08 -0.11774487129663118 0.3098411357787043
64.0 -0.05531410360482548 0.32361688483269446 -0.0009875113022595038 -3.259659058817646e-07 0.0011259648871612027 -8.562775522387782e-07 -0.37656455157332347 -0.13496074572796823
64.5 0.40603688092313284 -0.04614071637099055 -0.0005045333185240956 -6.00889321684111e-07 0.0011330110723784992 2.0188680505198773e-06 0.14831234623517373 -0.18012305387423727
65.0 -0.1407606404199577 -0.2726341669421281 0.0006145915077606139 1.3965222874221735e-08 -0.0010161689737886617 1.0246387097079275e-06 -0.09455858672339006 0.30619204212608825
65.5 -0.032743668262005206 0.32774230679058847 -0.0015050922406708645 7.014965889939323e-07 0.0007863519799474802 6.109691618376591e-07 -0.38237911266952157 -0.11450752703855928
66.0 0.397965992303707 -0.06599467285045348 -0.0004841422649986898 -2.6865691373182953e-07 -0.0010463698689700438 1.6421794558902643e-06 0.13084984129137817 -0.19743394985902923
66.5 -0.15506409823218045 -0.25769343692525337 -7.329875971955661e-05 9.871003762036447e-08 0.00014571309634386025 -2.5725027269695436e-07 -0.07288556060681879 0.30102625056923543
67.0 -0.010055151010583732 0.32846348805465597 -0.0017985737994634097 -9.578750726302655e-07 -0.0009202103684783161 1.0546191059890696e-06 -0.38460239538726054 -0.09325953320379117
67.5 0.3905980259988975 -0.08529665131136806 -0.0006571268316958174 1.1116785669253736e-06 -0.00019989037311640822 5.279683887244893e-07 0.11265512195180322 -0.21117276368531407
68.0 -0.16907441253053493 -0.2380443890594083 0.00011226076856270028 -4.126531122608311e-08 -0.0006115801146623015 1.5143491157939314e-06 -0.05062272098438367 0.29560786411945755
68.5 0.011375400065828739 0.3297910374844673 0.00041343799169022056 7.420183435731101e-07 1.4520926482250929e-05 -1.1302093852597518e-08 -0.3895520456866041 -0.07373425439946053
69.0 0.38061124100158866 -0.1023756731956843 0.000806743996199689 -1.0105727605389181e-07 0.00015113864914082604 -1.0649593516170172e-07 0.09247775190993665 -0.2229270437005796
69.5 -0.1814597249695206 -0.22015987034045062 -0.00039968131816062446 1.2389403269654332e-07 -0.00043252298663668426 -8.491172378603523e-08 -0.03173207191755633 0.28599397421472944
70.0 0.03426313830478383 0.32793851376261 -0.0015103597880929435 2.16554336594403e-06 0.0012407642504367459 2.2092145837902297e-06 -0.38851726131685643 -0.05285033147214482
70.5 0.37082341977490335 -0.12225598404133457 0.00025264093101161637 -3.349989509122954e-07 -0.001389305025179395 -3.763212543320489e-07 0.07198587273411645 -0.23198968942860068
71.0 -0.19305122258017604 -0.20202549415966425 -0.0008632073630495453 6.398573095220472e-07 0.0006292810052072351 -1.5111887346380924e-06 -0.011609067893974593 0.27592290620955917
71.5 0.05390738580076589 0.3246453081105275 0.00036269770737687207 -2.4017680078223097e-07 -0.0009867650190225668 2.3142252887664878e-06 -0.38752374692929764 -0.033957733063713594
72.0 0.3579373946949227 -0.13734307814658675 0.00021627455064335743 1.1540533332476838e-07 0.00029536077743560525 9.497265927401017e-07 0.05298189060555999 -0.24218657824209017
72.5 -0.20108028851747892 -0.1785771831410763 0.0007602096973323975 1.711138037367051e-06 -0.0006115552885277855 4.625616975091476e-07 0.00756758628097472 0.2666638778195775
73.0 0.0754983471325537 0.3222419417135647 -0.0009925101367725389 -9.01196552180209e-07 -0.0002730256139213858 2.085179600162866e-07 -0.3878843885750169 -0.012621066303274042
73.5 0.347645722877803 -0.15390471547730644 0.0008099772362013412 -1.5810927049282662e-06 -0.0011912248261004084 1.958780966473362e-06 0.033186141680220785 -0.24978656003896352
74.0 -0.20880603694996847 -0.1591172919329664 -0.0010483739346590641 -2.2287624083759593e-07 0.00023689043302629797 2.9237411861771786e-07 0.024584090716880513 0.2541517138893301
74.5 0.0949366509351598 0.3183074027543395 0.0004215565271947578 7.179346363992416e-07 0.0017200393753633008 -2.18594696106819e-07 -0.3831309950571151 0.006240137718347923
75.0 0.33537615337586335 -0.16873979880178933 0.0007880496024000277 -7.349785714589697e-07 -0.0014886436441958024 1.9798739479281668e-06 0.012284299490123458 -0.25581194099356996
75.5 -0.2164085622398845 -0.13964989107590872 -0.0013002573985922041 -9.225079819346955e-07 0.001273203115202728 3.2057767057878723e-06 0.040907399695686 0.2398311438796179
76.0 0.11370102829726607 0.30950084499881225 -0.0001181190665839788 -2.216790240661859e-07 -0.0025392272134147614 2.005273843837691e-06 -0.3792794494227923 0.023857966258540114
76.5 0.32135220447764 -0.18312014056376305 0.0007261715154603753 3.129220825673978e-07 -3.609744904861857e-05 -1.2859401001033329e-08 -0.008443781398076897 -0.26253436880667724
77.0 -0.2215089481772031 -0.11933446142438253 7.470794462106182e-05 3.1472569257040173e-07 0.0011848680193390676 -2.560587084915945e-06 0.056262149113213006 0.22474170179421518
77.5 0.13147674827234215 0.30302397102955136 0.00022723636238135885 -9.246757003978472e-07 0.00043655931429622635 -1.2623154816440598e-06 -0.3727453327134467 0.041772099078691165
78.0 0.3067055069247859 -0.1959550354478737 -0.0014377588693730734 -1.6023483567155569e-06 0.0008711994050174188 1.4944681184228825e-06 -0.028391605706418674 -0.26459569134935895
78.5 -0.22389018762553772 -0.09880095655431362 -0.0010141153489403672 -4.7451909370664897e-07 0.00012985733965403847 2.3338317620338004e-07 0.07109235492845141 0.20973457030833467
79.0 0.15013814115882873 0.2941456273679982 -5.12839446123744e-05 1.7662863592239656e-08 -0.0002160210907163024 4.5601094647432856e-07 -0.36821882643074194 0.06008866346810198
79.5 0.29219092177530476 -0.20649855021414823 0.0006599655463165301 -5.285150873294427e-07 -0.00023184050971798698 1.350393834129386e-07 -0.04864650723969972 -0.26279896661040175
80.0 -0.22810664717021825 -0.07910471917890498 0.0009035109270958763 -7.27536388245243e-09 1.194699087533571e-05 -1.4997927581731468e-08 0.08365788494274091 0.19349786404014463
80.5 0.16680045488887724 0.28726476120817723 -4.859955171484241e-05 -1.35171072080104e-07 0.0008442750835126645 -3.9754469842553833e-07 -0.36008038801129744 0.077562760749521
81.0 0.2765790048218975 -0.2182099364589352 -0.0004024744500903723 1.1829260401508865e-07 -0.0001498709483975142 6.503843133674601e-08 -0.06852890009832492 -0.2631739560278958
81.5 -0.23002303610704064 -0.058972017554177254 -0.0016466839117890522 -8.904713186881568e-07 -0.0010304251910710892 -6.86095522650649e-07 0.09451515610349816 0.1762562751218481
82.0 0.1835878544732775 0.27581117994585497 -0.0015220850990357508 -1.2014410123501574e-06 -0.0004639770619595908 9.1189484955232e-07 -0.35081673290271626 0.09460185077755699
82.5 0.2637149700907055 -0.22946953264517833 0.0009135922490260903 1.4275943702061517e-06 5.398851378086393e-05 6.696867037376874e-10 -0.08734839489272603 -0.2621798008543631
83.0 -0.2282250757288038 -0.038439523561714005 0.0017529030756345612 1.8441851770769438e-06 0.00019589384912446648 4.103043151077057e-07 0.10592163285783071 0.1609435304879528
83.5 0.20054675860634427 0.2673778846947088 -0.001784040351331179 -4.829853218132844e-06 0.0008768203036141109 2.1536681059065836e-06 -0.34112057384240274 0.10869262798219355
84.0 0.24420101926826063 -0.23694544448673044 0.0023877595934572956 -5.408864121882739e-06 0.0003956623929881315 -2.938481284548136e-07 -0.10646835343381487 -0.26037469256581847
84.5 -0.22736771161032915 -0.019247131776913173 0.002184321779902935 -2.7252891314695523e-06 -0.0005379040477235926 1.7023029216110221e-06 0.11310830142001488 0.1415926272550288
85.0 0.2135367890825592 0.25464100545117646 -0.0007079020905103253 -2.6388918419111723e-07 0.000581802523286382 -2.252591393497692e-06 -0.33240360636853034 0.12274608467214171
85.5 0.22941641609619387 -0.24506624219818973 -0.0005134729835043313 5.109857186834371e-07 -0.0016658119061068505 -2.6537245540211238e-06 -0.12519284438098005 -0.2570358263914221
86.0 -0.22498404040493863 0.00031878314797955184 -0.0002021583886899867 3.636804481611118e-07 -0.00041316954459711346 -6.363228984141733e-07 0.12059215707650466 0.1230850097430314
86.5 0.22682462397756545 0.24261875847598893 -0.0008227577216821088 2.2026911411688146e-06 -0.0010584435452721673 7.05366455903505e-07 -0.3201102322550514 0.13632028143068226
87.0 0.211352436741062 -0.25034301771828993 0.0013873462340251764 -4.3554248435044914e-07 -5.665500690425818e-05 7.331838855831876e-08 -0.14268890217159733 -0.2519214633492029
87.5 -0.22147668523336192 0.019089865977331727 0.0007829506019962156 4.5371119607642503e-07 -1.2734741834124162e-05 -1.937724347306927e-08 0.1253539923042131 0.10396434263849419
88.0 0.23920595163093206 0.22889055452680215 -0.0012627878873695596 3.053986001434452e-06 -0.00048644151282666416 -4.1198427607247093e-07 -0.3065417649810945 0.14911012072518642
88.5 0.19485209434530523 -0.2572594733341388 -0.0012672926935937592 1.7379846983445987e-06 -4.470832274739916e-05 -3.351166327811701e-08 -0.15953041570021964 -0.2456634189216384
89.0 -0.21559428418296717 0.036815191379342894 -0.0007045055044427819 -9.59138994531807e-09 -0.00041569712961400977 1.0118270784529318e-06 0.13235981985930656 0.08722130953838496
89.5 0.25240158154544967 0.2185119801095122 -0.0002598487350383431 1.6649410950530122e-07 0.00028568915629535903 -5.877785513499323e-07 -0.29526899668391376 0.16089842463006407
90.0 0.17746770405030723 -0.2624711418892694 -0.0008767565984817772 5.953739654531796e-08 -0.001422195956968247 8.169353755028756e-07 -0.17548986044727208 -0.2387984922741225
90.5 -0.20900117871000398 0.05564795016776715 -0.0005689185903642018 3.977941269127299e-07 0.0006200873846331735 -2.6960463348622587e-07 0.13402730045383401 0.06800235659399569
91.0 0.2620778816721789 0.20418236407766865 -0.0002749787486289802 -4.508144332229508e-07 -0.0009554107818135479 9.755193085088095e-07 -0.28314287558053225 0.1719052607992056
91.5 0.16004550351751348 -0.26546677604961605 0.00044863159434527044 6.555115617595969e-08 -0.0006264491844426456 -5.364853675866987e-07 -0.1907236081769925 -0.23025070161435507
92.0 -0.20010494924064112 0.07163951967009656 -0.0003224199809436963 2.7150129139584273e-07 0.0010272719212415216 1.9115876550123182e-06 0.13663667310424832 0.04989459326430937
92.5 0.27244960866152895 0.19022400704252557 0.00012207670872217062 -2.0945128051717586e-08 0.00011808605052663413 -3.300142060301276e-08 -0.267814925530734 0.18065569573738166
93.0 0.14403947173239678 -0.26779377186828146 0.0019218910965578938 4.761997126201158e-07 0.0008053591813956422 -7.753509628804422e-07 -0.2046869887081387 -0.22057303365027295
93.5 -0.19406789518722933 0.08865536559536423 -0.0014344061688875236 -2.5918396654067013e-06 -0.0018749547790455185 1.7958620593377901e-06 0.13413255923378906 0.030715222343177553
94.0 0.2812747210620644 0.17587586379574158 0.00029534582347860006 1.5132472122054693e-07 -0.0009548426145818313 2.1860100157527564e-06 -0.2525190994127303 0.18851476629448172
94.5 0.12559365888196988 -0.2680987411950948 0.000604919090411663 -1.4076706208819407e-06 -0.0005594036401652096 8.544232731996287e-07 -0.22009038824680643 -0.21157049891203308
95.0 -0.18553446311456842 0.10396389948615643 -0.00023111095478925558 2.3666877565297483e-07 0.0009106162361006175 2.0274938631668396e-06 0.1329656990234964 0.013376182225397324
95.5 0.28908180659858984 0.15998905197385657 0.001123483820971699 -1.2037266163899027e-08 0.0004421014745238194 6.245715277973104e-07 -0.23963320131961194 0.19812448376392403
96.0 0.10935531495346945 -0.2697439610768292 0.00026427109066299486 5.270711127867235e-07 0.0005463148074787862 1.2153232163638508e-06 -0.23144136955622507 -0.2002750133780185
96.5 -0.17561835606111822 0.11910262082474936 -0.000434254234785984 -1.5738595939971354e-06 0.0003328502695366676 2.1043752926155245e-07 0.13091220056073227 -0.00484144360236592
97.0 0.2950790524810453 0.14464697684895889 0.0007186124709148749 -6.876916014844965e-08 7.950492109232556e-05 -1.2516215420652725e-07 -0.22297854788456728 0.20343528090976445
97.5 0.09209934898115373 -0.2685795391585564 -0.00025241621494902434 -8.246360995386054e-07 8.38784797455115e-05 -1.4861103807532448e-07 -0.24582895783493175 -0.19149171866857914
98.0 -0.16502252748958665 0.13401560404029392 0.0007658833763519628 -8.081356595729099e-07 -0.0019462397606452193 2.586567085786716e-06 0.12749356186777366 -0.022207794601955815
98.5 0.3007465925173815 0.13031007244079426 0.0008363183361576954 -7.824593720995684e-07 -0.000348349708581943 4.309306875131318e-07 -0.20864697921991684 0.21029843924788427
99.0 0.07524908968901885 -0.26755845893136004 2.2025315200163272e-05 3.508137149224702e-09 -0.0005237450762225101 1.970343427597191e-07 -0.2550728470257842 -0.17828565745002503
99.5 -0.1534646739948122 0.14655425556801066 7.946740639427644e-05 -1.3073136367183797e-07 -0.001345003450071361 6.686978661040607e-07 0.12253639982709881 -0.03903439491838559
100.0 0.3081454413642302 0.1150494698097882 -0.0007913633243809939 -1.3718897180960122e-06 -0.002121450357953654 5.430829789031848e-06 -0.1931710702063345 0.21375667318201144
100.5 0.05871292711650005 -0.26384806329047505 0.0013256422605713236 -3.1625061274626143e-06 0.0003176546695442335 -1.7683496308769965e-07 -0.2660459354811923 -0.16685294127640943
101.0 -0.1412939428823165 0.15814674628171052 0.0006787126304003812 1.2969167162155334e-06 -0.00017861638763610733 3.478877373741792e-07 0.11724126557678838 -0.05498213304202038
101.5 0.31265223629981065 0.10036487637147415 0.00034681621590518664 -6.99723136098065e-08 -0.0018531940863967587 -2.0815716085338917e-06 -0.17647257226236518 0.21508653272537664
102.0 0.042726297755291964 -0.25999374990382085 -0.0006697855363261294 -1.0361827512554759e-06 -0.000707696551196195 2.2582337036473384e-06 -0.27189269568552094 -0.15298595542459578
102.5 -0.12765952158656252 0.16760533053953378 0.0011434020595446777 1.1167604440561398e-07 0.0008736237513760521 1.4364163091713121e-07 0.11044685945684593 -0.07058274947081151
103.0 0.3149101102102326 0.08379174509434803 -0.0011338089957629348 1.178229716326437e-06 0.0005524319849471326 -1.0736369426497641e-07 -0.16148088293717047 0.21887515910546065
103.5 0.027658094438485947 -0.2551521687051083 0.0008436589293383168 1.7669265016011474e-06 0.0014749661705442025 -2.4001006007871708e-06 -0.2834414533769612 -0.14020808837996368
104.0 -0.11562213277790583 0.17995855646118422 0.0006996442623973287 2.0559239964550844e-06 0.0002940903856729947 -6.170347119460887e-08 0.10202787157717635 -0.08495332859740504
104.5 0.3173675737829861 0.06933330644449082 5.350317205713927e-05 -1.0280029855539896e-07 -0.0011878337321040691 -2.5698331522847334e-06 -0.1455263300481742 0.21924392743858584
105.0 0.011599571431696917 -0.24792419200082338 0.0007202675901335609 -9.78001164744227e-07 -0.0008450354017314169 -4.554792872253766e-07 -0.28943830060131354 -0.12644330061604134
105.5 -0.10158910854664757 0.18836645954846945 -0.001437778057286478 1.936617623265094e-06 0.00010711999502289981 -2.2169653727058038e-07 0.09321805249609119 -0.09907851565487738
106.0 0.3195988434130758 0.05384177091486985 0.0011711474701549907 -1.3570079453975907e-07 -0.00024099488270018954 -7.413434669949295e-07 -0.12952443832271895 0.2198647428153816
106.5 -0.003475897767508922 -0.24371788135483163 -0.00020416940570730976 2.2000114810459387e-07 0.0010787435308139725 -7.188635179717274e-08 -0.29597922256978215 -0.11297009021451965
107.0 -0.08866517185369739 0.19888763328444722 0.0006097047218596838 1.385332672524964e-06 -0.00018150952008960964 3.7089057324041206e-07 0.08285969270203086 -0.11086162001804423
107.5 0.3202533178426365 0.03825708473167503 -0.00012064407345121459 -8.64399525407424e-09 -0.0004690504988607769 -1.1938381611736774e-07 -0.11377506093168936 0.21661313281943834
108.0 -0.017876860095499946 -0.23632005836462644 -0.0006727963750850682 -1.2285360025676492e-06 -0.0009037218572249614 -2.1579287787363864e-06 -0.2997629753855487 -0.09749200358484275
108.5 -0.0738892132652129 0.2066629245599734 -0.0011170949266405233 5.515549269858065e-07 -0.0007982970301476304 -1.6046859425452524e-06 0.0725588684410673 -0.12359622496991514
109.0 0.31920255444836365 0.023088691285674878 -0.0015607542378564348 -7.966917634803357e-06 -3.4929860324439236e-05 -3.750954483118754e-08 -0.0979135404852614 0.21283044920167302
109.5 -0.03120262763175353 -0.2283984577419659 0.000107856246945273 -1.6625727492969716e-08 0.0016242781825979203 -1.1572557729022334e-06 -0.3050906255595412 -0.08433946332017771
110.0 -0.0595422904561464 0.21121635350784196 -0.00039504301613077063 3.7845391824920824e-07 -0.001333494416439405 1.632297493658492e-07 0.061266855392001746 -0.13495595029434782
110.5 0.3155425911124077 0.008159426825901277 -0.0005769691171993561 1.9961549039788525e-06 -0.00026414816377581785 2.7039742385682026e-07 -0.0844071424377634 0.2131106718546437
111.0 -0.04433362305587241 -0.2209295168824031 -0.00016048507001456997 -2.497959687789728e-07 0.0013821041348315377 -2.96243871004726e-06 -0.3077712581061262 -0.0709714624925954
111.5 -0.04551331001668329 0.21815873448317993 0.0003832667041190662 5.420845762943903e-07 -0.0005413639238777369 -1.5961265481291798e-07 0.04958800961584433 -0.14523902202886513
112.0 0.31557056214911056 -0.007063616498941021 0.0016361274313082 2.983889207816808e-06 0.0007082781307614345 1.0759426565874213e-06 -0.06937913046540573 0.20814560004606666
112.5 -0.05650535273455915 -0.21022231108342912 0.0005997599390246188 1.7008743338220544e-06 0.000775409272417635 1.3092066334309912e-07 -0.30840708756582713 -0.05670742953079814
113.0 -0.03064001519346302 0.22231489749169428 -0.0004330505746288704 2.836272083907681e-08 -0.0006563808308931783 7.883068240796679e-07 0.03721969524086471 -0.15425160962791887
113.5 0.31170952414506736 -0.02109213413962892 -0.00013828619045775907 -4.490204224112671e-07 0.0004373667617253398 -4.958705057172719e-07 -0.05596210850124587 0.20354387461896983
114.0 -0.06726360563523764 -0.19881074212068292 0.00044869018343573434 3.2055590996787566e-08 0.00026415878730764124 1.5351277110213406e-07 -0.31160539240679624 -0.04193287504232812
114.5 -0.015970226718057104 0.22582221370427913 0.0027186030994891934 3.1514965726160484e-06 -0.0003429058334347342 9.615924013105609e-08 0.024773649765148308 -0.16208775234406142
115.0 0.3063217105223335 -0.034812866884369416 -0.002414418896187195 -1.4552385965984528e-06 -0.00014914898485391193 -2.47584564186478e-07 -0.04319384163951307 0.1992981901775276
115.5 -0.0787949529893843 -0.18989780633855846 4.121370066505097e-05 -4.0133371218491125e-08 -6.913432127005214e-05 -4.077873179174064e-07 -0.3111637308212921 -0.027199972109714123
116.0 -0.001168149057583512 0.22968364946352238 -0.0002714161866374841 -2.72254372068159e-07 0.000626340308733877 -1.836386683926411e-07 0.011137542679527046 -0.17187779002193726
116.5 0.30378742584513124 -0.04693993903967422 0.0008194468124426745 2.8944191529975543e-06 -0.0006093160120052584 -1.3237016160783042e-06 -0.029265685975754945 0.19090053372665458
117.0 -0.08841671239750529 -0.17588674498568593 -0.0005145637557173384 1.9087330406058247e-06 -0.0003467031970953884 -1.0478517736019637e-06 -0.3114940917651422 -0.01496907738430904
117.5 0.013960052723909292 0.23215175419451403 0.0004535325858449242 -6.747358448240158e-08 0.001137877484889186 -1.6746545936396348e-06 -0.0015563518797853091 -0.17514715887934318
118.0 0.297200473584095 -0.061680004916602124 -0.001986344265320825 -7.115556726972735e-06 -4.755414861368408e-05 -7.668062209003897e-08 -0.017573470295483517 0.1826934235772456
118.5 -0.0982423845807755 -0.16639793982549086 0.0015094118128773481 -7.194375072356845e-07 0.0006683913634237244 1.0076263130046737e-06 -0.3086214350391154 -0.0016313109670118642
119.0 0.028978113017623416 0.2311578707863535 0.0009233166403948772 2.6702153767747973e-06 0.0011545050317343618 9.831366440994558e-07 -0.015675610912013183 -0.1822213055245429
119.5 0.29100753940077967 -0.07469281734174965 0.0011991003590448904 -1.21446158015545e-07 0.0008899173956969057 3.050624224481667e-06 -0.0056413619366674815 0.17461929899499107
120.0 -0.10770942582278166 -0.1548141260043736 -0.0024655234787922422 -1.6037948061526006e-06 0.00044799473050238206 -1.095995116385898e-06 -0.3080127312951284 0.012443711124211016
120.5 0.04337449774348124 0.22979295936809582 0.0005299128862657953 -4.5660182054669986e-08 -0.0005201026963194883 2.383705862743211e-06 -0.030025370527289062 -0.18666544763738918
121.0 0.28503314561129667 -0.08586729747369708 0.0013571929615347703 3.095899386765414e-06 -6.807566306231449e-05 4.4702677172141645e-08 0.005529338918646621 0.16309944759208755
121.5 -0.11450406155940918 -0.1408984016400647 -0.001920087885180892 4.5956732915401857e-07 -0.0010711674594862425 1.645139658298368e-07 -0.3036926013105236 0.02609136779626388
122.0 0.0572294641810952 0.230595651416217 0.0009317304053891304 -3.0394296105782682e-06 0.00037104403029095904 -3.5102804450766114e-07 -0.043303203120681734 -0.1877552195856092
122.5 0.2799555992145347 -0.0982434160911975 -0.000786520689120591 -1.590008688766435e-06 0.0012942792210076555 -4.562944622293793e-06 0.015289332660027416 0.1549965277060279
123.0 -0.1204817722441794 -0.12733314428199508 0.001619012919641805 1.5347012467083753e-06 -0.0018798354337019889 1.0800660338943458e-06 -0.29946891123123776 0.03722712401373216
123.5 0.07188026383529693 0.2299185395819891 0.0009913378178250754 -4.199095476214436e-07 -0.00039771051167863746 6.882099488407561e-07 -0.056572936851946684 -0.18922359515465548
124.0 0.271557560071408 -0.1094046927607887 0.0006868842450811949 2.4755049984890092e-08 0.0003215654829059819 8.721599888338565e-07 0.024061183144585076 0.14539684786774837
124.5 -0.12678556488485615 -0.11431276043743059 -0.0008218884741919601 -5.091133281848012e-07 -0.0005669183947294567 -6.354112641399438e-07 -0.2972763700472492 0.05039404935056444
125.0 0.08568934523769739 0.22786063324194303 0.0012383448346233027 4.726781584733569e-06 0.00032049478511774143 4.796364460713062e-07 -0.07099805340382895 -0.18993211767753837
