! Created with skrf 2.1.0 (http://scikit-rf.org).
# GHz S RI R 50.0 
!freq ReS11 ImS11 ReS21 ImS21 ReS12 ImS12 ReS22 ImS22
1.0 0.09720431271974468 -0.06016061821814786 0.0 0.0 0.0 0.0 -0.17247451697529198 -0.07155900869509567
1.5 0.012443026050071266 0.012889385335730665 0.0 0.0 0.0 0.0 -0.020709462353817674 -0.020982849479327253
2.0 0.11656259447659618 0.04367842971183589 0.0 0.0 0.0 0.0 -0.1343824735890249 0.08605573264954328
2.5 0.08865787779289995 -0.05792348917729752 0.0 0.0 0.0 0.0 -0.17557465892576612 -0.057834798623045365
3.0 0.01814765522554386 0.01835074719049677 0.0 0.0 0.0 0.0 -0.030227493788091638 -0.029576113725163035
3.5 0.1180977218133762 0.03677559639629013 0.0 0.0 0.0 0.0 -0.12355501963427071 0.08259577052315209
4.0 0.08239502706721469 -0.05592816846443435 0.0 0.0 0.0 0.0 -0.17724685128082654 -0.04758786762934816
4.5 0.02286492354235601 0.022394279832230995 0.0 0.0 0.0 0.0 -0.03809083464544612 -0.03578223345384697
5.0 0.11904209236667505 0.031071277022496395 0.0 0.0 0.0 0.0 -0.11493517977311518 0.07919674356361311
5.5 0.07723220612445214 -0.053952718434862906 0.0 0.0 0.0 0.0 -0.17809391314502432 -0.038951575988108944
6.0 0.027101796125628803 0.025619605305171766 0.0 0.0 0.0 0.0 -0.04513430363304284 -0.040604703937686046
6.5 0.11957954689962494 0.026062291926805134 0.0 0.0 0.0 0.0 -0.10766087732087694 0.07574352435116585
7.0 0.07278230223525582 -0.05194350270192273 0.0 0.0 0.0 0.0 -0.17834255013863023 -0.03133005224418366
7.5 0.031041868057022408 0.02826659929225693 0.0 0.0 0.0 0.0 -0.051658335957218256 -0.04444730019382688
8.0 0.11980027648014054 0.02153473611612086 0.0 0.0 0.0 0.0 -0.10135629267256284 0.0722072872333055
8.5 0.06886074092811814 -0.04988456810704672 0.0 0.0 0.0 0.0 -0.17811588967156933 -0.02444645746088799
9.0 0.03477214692062028 0.030462435633511094 0.0 0.0 0.0 0.0 -0.05780433964511264 -0.0475257018538968
9.5 0.11975919002782348 0.017375805161297022 0.0 0.0 0.0 0.0 -0.09581724661108597 0.06858537666202255
10.0 0.0653624359743354 -0.04777293309983136 0.0 0.0 0.0 0.0 -0.1774935780988036 -0.018147667369506668
10.5 0.03833967089913169 0.03228546747286873 0.0 0.0 0.0 0.0 -0.06364822804554114 -0.04997402120282819
11.0 0.11949412619683991 0.013518370237255523 0.0 0.0 0.0 0.0 -0.09091778099543814 0.06488515651013073
11.5 0.062220730499526214 -0.045611030126375615 0.0 0.0 0.0 0.0 -0.17653289719242252 -0.012339653104959464
12.0 0.04177181283523955 0.03378888750861413 0.0 0.0 0.0 0.0 -0.0692338942084665 -0.051884280281193
12.5 0.11903338111622297 0.009919218733222792 0.0 0.0 0.0 0.0 -0.08657321268935306 0.061118240738655794
13.0 0.05939005762895018 -0.04340378559837492 0.0 0.0 0.0 0.0 -0.17527810225373205 -0.0069604129181494
13.5 0.0450851619281558 0.03501140198875704 0.0 0.0 0.0 0.0 -0.07458782019261295 -0.053324225068218614
14.0 0.11839938013591268 0.00654893140647549 0.0 0.0 0.0 0.0 -0.0827228298400479 0.05729806163632038
14.5 0.05683745968205837 -0.04115731744817186 0.0 0.0 0.0 0.0 -0.1737651847740635 -0.0019668359889507873
15.0 0.048289945000311835 0.0359827047479697 0.0 0.0 0.0 0.0 -0.07972632978139985 -0.05434646097676618
15.5 0.11761067878188473 0.0033866024206527096 0.0 0.0 0.0 0.0 -0.07932081239644759 0.053438726133673196
16.0 0.05453799609526833 -0.03887829435411346 0.0 0.0 0.0 0.0 -0.17202455175871448 0.0026723571584778647
16.5 0.05139243896241464 0.036726551381822174 0.0 0.0 0.0 0.0 -0.08465953280210169 -0.05499358152480154
17.0 0.1166831437193978 0.00041684717807714513 0.0 0.0 0.0 0.0 -0.07633106087305042 0.0495544341194727
17.5 0.052472063498386665 -0.03657359718679912 0.0 0.0 0.0 0.0 -0.17008264480636998 0.0069807052259690736
18.0 0.054396380965805805 0.03726260689269774 0.0 0.0 0.0 0.0 -0.08939362113109232 -0.05530124877226176
18.5 0.11563069286287386 -0.0023720037976000885 0.0 0.0 0.0 0.0 -0.07372406314417726 0.04565916466098926
19.0 0.05062373916256402 -0.03425013015225123 0.0 0.0 0.0 0.0 -0.16796297299977256 0.010976517673499869
19.5 0.057303838014818496 0.03760761609585463 0.0 0.0 0.0 0.0 -0.09393227716302806 -0.055300142796618754
20.0 0.11446578130717569 -0.004989050515313412 0.0 0.0 0.0 0.0 -0.07147490272485217 0.04176649880564179
20.5 0.04897970950800258 -0.031914710827915055 0.0 0.0 0.0 0.0 -0.16568680018274026 0.014674489084748875
21.0 0.06011576665795799 0.03777617664330089 0.0 0.0 0.0 0.0 -0.09827757425995477 -0.05501724770806052
21.5 0.11319973236321494 -0.007441579840566969 0.0 0.0 0.0 0.0 -0.06956194377862025 0.0378895158283586
22.0 0.04752855129028781 -0.02957400386357648 0.0 0.0 0.0 0.0 -0.16327361772270443 0.01808677596521422
22.5 0.06283238593782137 0.03778126713687012 0.0 0.0 0.0 0.0 -0.1024305716600164 -0.054476728972812284
23.0 0.11184296985912728 -0.009735581390278466 0.0 0.0 0.0 0.0 -0.06796593635221518 0.03404073077623892
23.5 0.04626023484877802 -0.027234479831440422 0.0 0.0 0.0 0.0 -0.16074147842467165 0.021223737017368016
24.0 0.06545343309055272 0.037634618057026906 0.0 0.0 0.0 0.0 -0.10639171794379688 -0.05370054865253252
24.5 0.11040518512142827 -0.011876109077489781 0.0 0.0 0.0 0.0 -0.0666693928029193 0.030232056180193437
25.0 0.04516577236860822 -0.024902389054710414 0.0 0.0 0.0 0.0 -0.15810723739032426 0.02409445484340334
25.5 0.06797834301977435 0.037346978322836885 0.0 0.0 0.0 0.0 -0.11016113034282392 -0.05270890682792599
26.0 0.10889545937373558 -0.013867540249764084 0.0 0.0 0.0 0.0 -0.06565614501091162 0.02647477846827931
26.5 0.04423696382169265 -0.022583744624143844 0.0 0.0 0.0 0.0 -0.15538672866629977 0.02670711113849662
27.0 0.07040637671324168 0.03692831052229571 0.0 0.0 0.0 0.0 -0.11373879112302612 -0.05152056441719098
27.5 0.1073223548929414 -0.015713764929704263 0.0 0.0 0.0 0.0 -0.0649110254822895 0.022779543697418907
28.0 0.043466210479245496 -0.020284311208274286 0.0 0.0 0.0 0.0 -0.15259489648132954 0.02906926095165699
28.5 0.07273671456019601 0.03638793617078494 0.0 0.0 0.0 0.0 -0.11712468715842149 -0.050153083068689173
29.0 0.10569398377256559 -0.01741832615247784 0.0 0.0 0.0 0.0 -0.06441963538265656 0.019156349467141637
29.5 0.04284637626116555 -0.018009597619702833 0.0 0.0 0.0 0.0 -0.1497458936936192 0.031188035716493357
30.0 0.07496852498083309 0.03573464520258358 0.0 0.0 0.0 0.0 -0.12031890971459416 -0.04862300584549636
30.5 0.10401806032447193 -0.018984525334167585 0.0 0.0 0.0 0.0 -0.06416817481604953 0.015614541153438967
31.0 0.04237068364198937 -0.015764851890988106 0.0 0.0 0.0 0.0 -0.1468531561463087 0.03307029492119439
31.5 0.07710101533381301 0.034976779381475545 0.0 0.0 0.0 0.0 -0.12332172581626616 -0.04694599486143156
32.0 0.10230194132722444 -0.020415502144854367 0.0 0.0 0.0 0.0 -0.06414331845125995 0.012162811336156874
32.5 0.04203263496565052 -0.013555058085395427 0.0 0.0 0.0 0.0 -0.14392945906461319 0.03472274002218632
33.0 0.07913346986687629 0.03412229638200506 0.0 0.0 0.0 0.0 -0.1261336289698886 -0.0451369371199889
33.5 0.10055265711995759 -0.021714295466316612 0.0 0.0 0.0 0.0 -0.06433212467300801 0.008809201727387311
34.0 0.041825952736216934 -0.011384934355996239 0.0 0.0 0.0 0.0 -0.14098695991172278 0.03615200011022212
34.5 0.08106527803615114 0.03317881934044849 0.0 0.0 0.0 0.0 -0.12875537465710654 -0.043210026542006376
35.0 0.09877693571917583 -0.02288389009307125 0.0 0.0 0.0 0.0 -0.06472196982142812 0.005561107164840336
35.5 0.04174453427509095 -0.009258931943951776 0.0 0.0 0.0 0.0 -0.1380372309439129 0.037364696101984084
36.0 0.0828959555562874 0.032153675347080246 0.0 0.0 0.0 0.0 -0.13118800443951867 -0.041178827948297816
36.5 0.09698122156650638 -0.02392725253259679 0.0 0.0 0.0 0.0 -0.06530050139186265 0.0024252813877105265
37.0 0.041782417385831924 -0.007181234918927524 0.0 0.0 0.0 0.0 -0.1350912838843448 0.03836748836410859
37.5 0.08462515988789177 0.0310539254307547 0.0 0.0 0.0 0.0 -0.13343286144334174 -0.03905632722468124
38.0 0.095171690113291 -0.024847358360592358 0.0 0.0 0.0 0.0 -0.06605560567136859 -0.0005921555961554873
38.5 0.04193375454070461 -0.0051557605347101465 0.0 0.0 0.0 0.0 -0.13215958854980078 0.039167111382567225
39.0 0.08625270141219321 0.02988638793755097 0.0 0.0 0.0 0.0 -0.13549159924659443 -0.03685497081260777
39.5 0.09335425915904047 -0.025647212954717027 0.0 0.0 0.0 0.0 -0.06697538642343692 -0.00348570869002562
40.0 0.04219279372301516 -0.0031861601175742875 0.0 0.0 0.0 0.0 -0.12925208684138006 0.039770398177397796
40.5 0.0877785512223697 0.02865765673946894 0.0 0.0 0.0 0.0 -0.13736618566797573 -0.03458669689106493
41.0 0.09153459765009601 -0.026329866979015366 0.0 0.0 0.0 0.0 -0.0680481520488919 -0.006250497542088821
41.5 0.042553864506444536 -0.0012758204340340676 0.0 0.0 0.0 0.0 -0.1263782031999221 0.040184296509205755
42.0 0.08920284623072318 0.02737411537053106 0.0 0.0 0.0 0.0 -0.13905890257996728 -0.03226296005152172
42.5 0.08971813248905543 -0.026898427664685257 0.0 0.0 0.0 0.0 -0.06926240924706564 -0.008882245123923774
43.0 0.04301136827914241 0.0005721344987463049 0.0 0.0 0.0 0.0 -0.12354685239342199 0.0404158784512469
43.5 0.0905258921244067 0.02604194793787103 0.0 0.0 0.0 0.0 -0.1405723425972691 -0.029894750851834722
44.0 0.08791005378849469 -0.0273560666937031 0.0 0.0 0.0 0.0 -0.07060686164302207 -0.011377265135988513
44.5 0.043559771762683566 0.002354841184417346 0.0 0.0 0.0 0.0 -0.12076644532954824 0.04047234455273505
45.0 0.09174816457970522 0.02466714746924394 0.0 0.0 0.0 0.0 -0.14190940329087065 -0.02749261132650774
45.5 0.08611531891414415 -0.027706025314194627 0.0 0.0 0.0 0.0 -0.0720704121781323 -0.013732448318525185
46.0 0.044193603157321903 0.004069694019657219 0.0 0.0 0.0 0.0 -0.11804489345026489 0.040361023562094867
46.5 0.09287030905458757 0.02325552221746431 0.0 0.0 0.0 0.0 -0.14307327943072953 -0.025066647297231584
47.0 0.084338655594228 -0.02795161718368725 0.0 0.0 0.0 0.0 -0.0736421683135304 -0.0159452477458939
47.5 0.0449074503827321 0.005714342281546735 0.0 0.0 0.0 0.0 -0.11538961216157846 0.04008936848546329
48.0 0.0938931394103336 0.021812700335467353 0.0 0.0 0.0 0.0 -0.14406745364770365 -0.022626538151859412
48.5 0.08258456431915343 -0.028096229335495812 0.0 0.0 0.0 0.0 -0.07531144928988212 -0.018013663182210597
49.0 0.045695960988932624 0.007286686743363771 0.0 0.0 0.0 0.0 -0.11280752366775998 0.039664949610022565
49.5 0.09481763556222987 0.02034413325256268 0.0 0.0 0.0 0.0 -0.14489568582237136 -0.020181544623287074
50.0 0.08085732021422726 -0.02814332158662544 0.0 0.0 0.0 0.0 -0.07706779483803262 -0.019936224577533693
50.5 0.04655384339371134 0.00878487593031765 0.0 0.0 0.0 0.0 -0.11030505951469684 0.039095445010027575
51.0 0.09564494031888329 0.018855098018988888 0.0 0.0 0.0 0.0 -0.14556200144303064 -0.017740514996311723
51.5 0.07916097453484792 -0.028096424646380784 0.0 0.0 0.0 0.0 -0.07890097485404583 -0.021711974784786855
52.0 0.047475869166920606 0.010207302027852791 0.0 0.0 0.0 0.0 -0.10788816309165661 0.0383886289678949
52.5 0.09637635554019654 0.017350698834836573 0.0 0.0 0.0 0.0 -0.14607067912682015 -0.015311890087848884
53.0 0.07749935590810743 -0.027959137138517474 0.0 0.0 0.0 0.0 -0.08080099964615793 -0.023340451577427663
53.5 0.04845687613223407 0.011552596454637801 0.0 0.0 0.0 0.0 -0.10556229229826153 0.037552358675749124
54.0 0.09701333771941408 0.015835867940623784 0.0 0.0 0.0 0.0 -0.14642623745914846 -0.012903707282933656
54.5 0.07587607142241007 -0.02773512171398244 0.0 0.0 0.0 0.0 -0.08275813043778257 -0.024821669049426266
55.0 0.04949177209727409 0.012819625113620885 0.0 0.0 0.0 0.0 -0.10333242254592005 0.03659455953064735
55.5 0.0975574930771326 0.01431536601415283 0.0 0.0 0.0 0.0 -0.1466334212775754 -0.010523603857601066
56.0 0.07429450765062316 -0.02742810040248999 0.0 0.0 0.0 0.0 -0.08476288987087441 -0.02615609847681455
56.5 0.05057553905510527 0.014007483334902525 0.0 0.0 0.0 0.0 -0.10120305023254984 0.03552320929519454
57.0 0.0980105722395329 0.012793782194155716 0.0 0.0 0.0 0.0 -0.1466971875028744 -0.008178819780411023
57.5 0.07275783167667865 -0.027041849328774206 0.0 0.0 0.0 0.0 -0.08680607230523142 -0.027344648720932514
58.0 0.051703237726360686 0.015115490525291424 0.0 0.0 0.0 0.0 -0.09917819680275536 0.03434632136201722
58.5 0.09837446456237578 0.011275533829755385 0.0 0.0 0.0 0.0 -0.14662269060229335 -0.005876200151921857
59.0 0.0712689921848688 -0.02658019290103185 0.0 0.0 0.0 0.0 -0.08887875374927316 -0.028388646250407608
59.5 0.052870012332353264 0.0161431845397349 0.0 0.0 0.0 0.0 -0.09726141348312206 0.03307192733363878
60.0 0.0986511921523275 0.009764866039301821 0.0 0.0 0.0 0.0 -0.14641526775590338 -0.00362219741612326
60.5 0.06983072066015683 -0.026046997564527233 0.0 0.0 0.0 0.0 -0.0909723012926313 -0.029289814857903874
61.0 0.05407109550727397 0.017090315790901152 0.0 0.0 0.0 0.0 -0.09545578676233601 0.031708059107107715
61.5 0.09884290363049114 0.0082658511473611 0.0 0.0 0.0 0.0 -0.14608042378620714 -0.00142287345616306
62.0 0.06844553274000921 -0.025446165201365327 0.0 0.0 0.0 0.0 -0.09307838193850057 -0.030050255144543125
62.5 0.05530181327191884 0.017956841113434308 0.0 0.0 0.0 0.0 -0.09376394466826861 0.030262730634153856
63.0 0.09895186767629258 0.0067823880589895115 0.0 0.0 0.0 0.0 -0.14562381590246848 0.0007160983290124682
63.5 0.06711572975078002 -0.02478162624770881 0.0 0.0 0.0 0.0 -0.09518897075749752 -0.030672423842317102
64.0 0.05655759000371763 0.018742917400170124 0.0 0.0 0.0 0.0 -0.09218806387863847 0.028743919511784403
64.5 0.09898046638569288 0.005318201619860067 0.0 0.0 0.0 0.0 -0.1450512383049626 0.0027894308855603445
65.0 0.06584340045562326 -0.02405733259165725 0.0 0.0 0.0 0.0 -0.0972963583042087 -0.031159113041464855
65.5 0.05783395334765695 0.019448895027522232 0.0 0.0 0.0 0.0 -0.09072987768860934 0.027159548544907285
66.0 0.09893118847328086 0.0038768420043433735 0.0 0.0 0.0 0.0 -0.14436860668925142 0.004792221232406874
66.5 0.06463042303518904 -0.02327725030818236 0.0 0.0 0.0 0.0 -0.09939315725441424 -0.031513429386526244
67.0 0.0591265390218238 0.020075311088104515 0.0 0.0 0.0 0.0 -0.08939068484523172 0.02551746740990848
67.5 0.09880662234489898 0.0024616841665029638 0.0 0.0 0.0 0.0 -0.14358194268696675 0.006719947994708868
68.0 0.06347846731825367 -0.0224453522819911 0.0 0.0 0.0 0.0 -0.10147230823428068 -0.031738773300856865
68.5 0.06043109547795697 0.020622882448118926 0.0 0.0 0.0 0.0 -0.08817135924881753 0.023825434538001723
69.0 0.09860944906468315 0.001075927383927441 0.0 0.0 0.0 0.0 -0.14269735827677463 0.008568468690682968
69.5 0.06238899727472418 -0.02156561076422131 0.0 0.0 0.0 0.0 -0.10352708482462901 -0.031838818295825286
70.0 0.06174348838450023 0.021092498647862216 0.0 0.0 0.0 0.0 -0.08707236051004874 0.022091099326359515
70.5 0.0983424352382715 -0.00027740508000585095 0.0 0.0 0.0 0.0 -0.14172104019744258 0.010334016725187814
71.0 0.06136327378011609 -0.02064198990479141 0.0 0.0 0.0 0.0 -0.10555109773314539 -0.03181749041704668
71.5 0.06305970490409119 0.021485214662862167 0.0 0.0 0.0 0.0 -0.0860937453439107 0.02032198477666198
72.0 0.09800842583220198 -0.0015954661744162647 0.0 0.0 0.0 0.0 -0.14065923439332345 0.012013198051231432
72.5 0.06040235765721318 -0.019678438298548824 0.0 0.0 0.0 0.0 -0.10753829813513664 -0.03167894787602589
73.0 0.0643758577429066 0.02180224354372009 0.0 0.0 0.0 0.0 -0.08523517977265219 0.01852547065130634
73.5 0.09761033694800235 -0.00287558510078234 0.0 0.0 0.0 0.0 -0.13951823052226872 0.01360298746356213
74.0 0.05950711299794663 -0.01867888158031822 0.0 0.0 0.0 0.0 -0.10948298018998354 -0.03142756091177913
74.5 0.06568818895280043 0.022044948952115714 0.0 0.0 0.0 0.0 -0.0844959521032936 0.016708777229483236
75.0 0.09715114856829223 -0.004115267179929971 0.0 0.0 0.0 0.0 -0.1383043465548888 0.015100724495768736
75.5 0.058678210765429964 -0.017647215100795127 0.0 0.0 0.0 0.0 -0.1113797827465989 -0.031067891923285247
76.0 0.06699307347094517 0.022214837610376525 0.0 0.0 0.0 0.0 -0.08387498663889582 0.014878949737313355
76.5 0.09663389729125366 -0.005312193532256211 0.0 0.0 0.0 0.0 -0.13702391349485138 0.016504108893927786
77.0 0.057916132674375106 -0.016587296713024762 0.0 0.0 0.0 0.0 -0.11322369025446222 -0.03060467590974534
77.5 0.0682870223846675 0.022313551681606765 0.0 0.0 0.0 0.0 -0.08337085807721382 0.013042843518285984
78.0 0.09606166906884546 -0.006464220561474132 0.0 0.0 0.0 0.0 -0.1356832602488126 0.01781119564663013
78.5 0.05722117534556158 -0.015502939696608624 0.0 0.0 0.0 0.0 -0.11501003290140105 -0.030042801252203308
79.0 0.06956668591183225 0.022342861097025338 0.0 0.0 0.0 0.0 -0.08298180654586833 0.01120711000300106
79.5 0.09543759196365868 -0.007569379232108441 0.0 0.0 0.0 0.0 -0.13428869867625082 0.019020389551904836
80.0 0.05659345472828811 -0.014397905844653107 0.0 0.0 0.0 0.0 -0.1167344860014107 -0.029387290866559914
80.5 0.0708288560896718 0.022304655846783022 0.0 0.0 0.0 0.0 -0.08270575321893842 0.009378183529432423
81.0 0.09476482893845306 -0.008625874134387607 0.0 0.0 0.0 0.0 -0.13284650884833193 0.020130439307850787
81.5 0.05603291078297784 -0.013275898736373252 0.0 0.0 0.0 0.0 -0.11839306865843706 -0.02864328375471377
82.0 0.07207046916688484 0.02220093825001743 0.0 0.0 0.0 0.0 -0.08254031645683309 0.0075622690580767985
82.5 0.09404657069211667 -0.009632082330491346 0.0 0.0 0.0 0.0 -0.1313629245463254 0.021140431115202793
83.0 0.055539312414959026 -0.012140557216812314 0.0 0.0 0.0 0.0 -0.11998214173256545 -0.027816016977661617
83.5 0.0732886076955147 0.02203381521942976 0.0 0.0 0.0 0.0 -0.08248282840864661 0.005765330819462723
84.0 0.0932860285552798 -0.010586551978029018 0.0 0.0 0.0 0.0 -0.12984411903013113 0.022049781784058482
84.5 0.055112262648221506 -0.010995449102259835 0.0 0.0 0.0 0.0 -0.12149840513805055 -0.02691080807113479
85.0 0.07448050232137282 0.021805490535234697 0.0 0.0 0.0 0.0 -0.08253035201402707 0.003993081923787558
85.5 0.09248642745833292 -0.011488000727980844 0.0 0.0 0.0 0.0 -0.1282961911074341 0.022858231340435794
86.0 0.05475120402795201 -0.00984406512972913 0.0 0.0 0.0 0.0 -0.12293889450086416 -0.02593303792216808
86.5 0.0756435332721537 0.021518257142682753 0.0 0.0 0.0 0.0 -0.0826796983407018 0.0022509749575952615
87.0 0.0916509989844205 -0.012335313895093911 0.0 0.0 0.0 0.0 -0.12672515153471595 0.023565835130889126
87.5 0.05445542423834172 -0.008689813165499681 0.0 0.0 0.0 0.0 -0.12430097720619436 -0.024888134121908635
88.0 0.07677523154481164 0.021174489486933602 0.0 0.0 0.0 0.0 -0.08292744419247 0.0005441935838733309
88.5 0.09078297451956868 -0.013127542400090612 0.0 0.0 0.0 0.0 -0.1251369097812783 0.0241729554267913
89.0 0.05422406192234037 -0.007536012687778292 0.0 0.0 0.0 0.0 -0.1255823478641534 -0.0237815548084099
89.5 0.07787327979399866 0.02077663589841833 0.0 0.0 0.0 0.0 -0.08326994992271686 -0.0011223548424110507
90.0 0.08988557851174862 -0.013863900484063222 0.0 0.0 0.0 0.0 -0.12353726118715476 0.024680252533057306
90.5 0.05405611268831216 -0.006385889555407852 0.0 0.0 0.0 0.0 -0.12678102322388665 -0.02261877301026426
91.0 0.07893551292473427 0.02032721104132315 0.0 0.0 0.0 0.0 -0.08370337738852505 -0.0027440456380459868
91.5 0.08896202185050317 -0.014543763196188329 0.0 0.0 0.0 0.0 -0.12193187454603578 0.025088675408759604
92.0 0.053950435288596624 -0.005242571074419725 0.0 0.0 0.0 0.0 -0.12789533656385732 -0.02140526150100922
92.5 0.07995991839328222 0.01982878843725036 0.0 0.0 0.0 0.0 -0.08422370798129321 -0.004316542134775952
93.0 0.08801549537856865 -0.015166663656756911 0.0 0.0 0.0 0.0 -0.12032628014390172 0.02539945181019611
93.5 0.05390575795388434 -0.0041090813716547665 0.0 0.0 0.0 0.0 -0.12892393158751467 -0.0201464781715475
94.0 0.08094463622105368 0.01928399307552224 0.0 0.0 0.0 0.0 -0.08482676067100005 -0.005835800007458809
94.5 0.08704916354620731 -0.015732290098810983 0.0 0.0 0.0 0.0 -0.11872585828299755 0.025614077970083696
95.0 0.05392068486721171 -0.0029883370839987634 0.0 0.0 0.0 0.0 -0.12986575585116414 -0.01884785192738865
95.5 0.08188795872660314 0.018695494121163565 0.0 0.0 0.0 0.0 -0.08550821000273706 -0.00729807059715192
96.0 0.0860661582192096 -0.01624048269184363 0.0 0.0 0.0 0.0 -0.11713582832101356 0.02573430782893287
96.5 0.0539937027608387 -0.001883143370029209 0.0 0.0 0.0 0.0 -0.13072005375145176 -0.017514769115437243
97.0 0.08278832998213134 0.018065997730835465 0.0 0.0 0.0 0.0 -0.0862636039862694 -0.00869990324486358
97.5 0.08506957265101894 -0.01669123015210707 0.0 0.0 0.0 0.0 -0.11556123825360204 0.025762141837828805
98.0 0.054123187619083885 -0.0007961902495266292 0.0 0.0 0.0 0.0 -0.1314863590985048 -0.016152560484270353
98.5 0.08364434500052749 0.01739823998672097 0.0 0.0 0.0 0.0 -0.0870883818213659 -0.010038146654429097
99.0 0.08406245562886491 -0.017084666144952694 0.0 0.0 0.0 0.0 -0.11400695486767913 0.02569981535431119
99.5 0.05430741147004811 0.0002699507247959425 0.0 0.0 0.0 0.0 -0.13216448729995758 -0.014766488681018989
100.0 0.08445474866026018 0.016694979957537673 0.0 0.0 0.0 0.0 -0.08797789140461951 -0.011309949308733993
100.5 0.08304780580387094 -0.01742106548497684 0.0 0.0 0.0 0.0 -0.11247765449164995 0.025549786655660184
101.0 0.054544549249059965 0.0013128294604640104 0.0 0.0 0.0 0.0 -0.13275452718066302 -0.013361736286733667
101.5 0.08521843437489879 0.015958992895753123 0.0 0.0 0.0 0.0 -0.08892740656558872 -0.01251275896493007
102.0 0.08202856621441935 -0.01770084014068026 0.0 0.0 0.0 0.0 -0.11097781436658159 0.025314724596401345
102.5 0.054832685716687535 0.0023301199813990144 0.0 0.0 0.0 0.0 -0.13325683246145742 -0.011943394392301611
103.0 0.08593444251541861 0.015193063579061201 0.0 0.0 0.0 0.0 -0.08993214398397302 -0.01364432125999112
103.5 0.08100761901193371 -0.0179245350508181 0.0 0.0 0.0 0.0 -0.1095117046621046 0.02499749593900269
104.0 0.05516982241430786 0.003319622746963903 0.0 0.0 0.0 0.0 -0.1336720129207197 -0.010516451714776392
104.5 0.08660195859293396 0.014399979804047697 0.0 0.0 0.0 0.0 -0.09098727974184519 -0.014702677458557167
105.0 0.07998778039760439 -0.01809282376036495 0.0 0.0 0.0 0.0 -0.10808338115693991 0.024601152389115314
105.5 0.05555388464029134 0.00427926663360788 0.0 0.0 0.0 0.0 -0.13400092526013782 -0.009085784255996545
106.0 0.0872203112097997 0.013582526039594886 0.0 0.0 0.0 0.0 -0.09208796546866775 -0.01568616137878138
106.5 0.07897179577830793 -0.01820650388449968 0.0 0.0 0.0 0.0 -0.10669667860355089 0.024128917368508376
107.0 0.05598272843025543 0.005207110581714653 0.0 0.0 0.0 0.0 -0.13424466369709273 -0.007656145502364549
107.5 0.0877889697878051 0.012743477246665354 0.0 0.0 0.0 0.0 -0.09322934404015285 -0.016593395533769633
108.0 0.07796233514949233 -0.018266492409599204 0.0 0.0 0.0 0.0 -0.10535520479356301 0.023584172560807033
108.5 0.05645414752491304 0.006101344909349745 0.0 0.0 0.0 0.0 -0.13440455030414675 -0.00623215716669498
109.0 0.08830754208169173 0.011885592871144737 0.0 0.0 0.0 0.0 -0.09440656479526228 -0.017423286527772735
109.5 0.07696198871211195 -0.018273820840780566 0.0 0.0 0.0 0.0 -0.1040623353376099 0.022970444266574234
110.0 0.05696588030967054 0.0069602922972967505 0.0 0.0 0.0 0.0 -0.1344821251164914 -0.004818300471026837
110.5 0.08877577148677447 0.011011611015706604 0.0 0.0 0.0 0.0 -0.09561479823930065 -0.018175019748049068
111.0 0.07597326273084765 -0.01822963020586639 0.0 0.0 0.0 0.0 -0.10282120917241037 0.022291389605987595
111.5 0.057515616710289735 0.007782408449381281 0.0 0.0 0.0 0.0 -0.1344791360271371 -0.0034189079705730725
112.0 0.08919353414951225 0.010124242796228027 0.0 0.0 0.0 0.0 -0.09684925020450776 -0.01884805339435659
112.5 0.07499857563937927 -0.018135165926351032 0.0 0.0 0.0 0.0 -0.10163472480327534 0.02155078260821995
113.0 0.05810100502959022 0.008566282433808914 0.0 0.0 0.0 0.0 -0.13439752848965275 -0.0020381559175667746
113.5 0.08956083588960907 0.009226166888384377 0.0 0.0 0.0 0.0 -0.09810517544222347 -0.01944211188829108
114.0 0.07404025439856095 -0.017991772566149082 0.0 0.0 0.0 0.0 -0.10050553728876593 0.020752500227735015
114.5 0.058719658710573684 0.009310636711597643 0.0 0.0 0.0 0.0 -0.1342394350475933 -0.0006800571650204374
115.0 0.08987780894300205 0.008320024268801952 0.0 0.0 0.0 0.0 -0.09937789062553148 -0.01995717870652128
115.5 0.07310053111263523 -0.017800888469354577 0.0 0.0 0.0 0.0 -0.09943605597121424 0.019900508328466026
116.0 0.059369163011886536 0.010014326859037317 0.0 0.0 0.0 0.0 -0.13400716470979446 0.0006515453909707061
116.5 0.09014470853450882 0.007408413155571634 0.0 0.0 0.0 0.0 -0.10066278674298311 -0.020393488680809653
117.0 0.07218153990822203 -0.01756404029860354 0.0 0.0 0.0 0.0 -0.09842844295400845 0.01899884767740955
117.5 0.06004708158210525 0.010676340991806168 0.0 0.0 0.0 0.0 -0.1337031921903531 0.0019529848304987248
118.0 0.0903619092893026 0.006493884152155633 0.0 0.0 0.0 0.0 -0.10195534086797653 -0.02075151980852987
118.5 0.0712853140796102 -0.017282837485937314 0.0 0.0 0.0 0.0 -0.09748461232303111 0.018051619989039442
119.0 0.060750962920185 0.011295798899349039 0.0 0.0 0.0 0.0 -0.13333014703209833 0.0032207756925629913
119.5 0.09052990149235031 0.005578935598447316 0.0 0.0 0.0 0.0 -0.10325112729168537 -0.021031984617160267
120.0 0.07041378350380595 -0.016958966608279214 0.0 0.0 0.0 0.0 -0.09660623010753727 0.017062974062278056
120.5 0.06147834670960838 0.01187195089802126 0.0 0.0 0.0 0.0 -0.1328908026322648 0.004451618921246905
121.0 0.09064928720491462 0.004666009132591431 0.0 0.0 0.0 0.0 -0.10454582800909357 -0.021235821125184205
121.5 0.06956877232807125 -0.016594185699918697 0.0 0.0 0.0 0.0 -0.09579471497264849 0.016037092051510386
122.0 0.062226770014699936 0.012404176412558997 0.0 0.0 0.0 0.0 -0.1323880651891728 0.005642406276986941
122.5 0.09072077624743091 0.0037574854663881565 0.0 0.0 0.0 0.0 -0.10583524255239656 -0.021364183442118472
123.0 0.06875199693177765 -0.016190318514545575 0.0 0.0 0.0 0.0 -0.0950512396324307 0.014978175912330416
123.5 0.06299377332843903 0.012891982296012672 0.0 0.0 0.0 0.0 -0.1318249625886265 0.006790224214545436
124.0 0.09074518205785939 0.0028556803773052523 0.0 0.0 0.0 0.0 -0.10711529716664427 -0.021418432048650918
124.5 0.06796506416394264 -0.015749248749526854 0.0 0.0 0.0 0.0 -0.0943767329700876 0.013890434062204018
125.0 0.06377690646121305 0.013335000898091743 0.0 0.0 0.0 0.0 -0.13120463324916248 0.007892357228378635
