! Created with skrf 2.1.0 (http://scikit-rf.org).
# GHz S RI R 50.0 
!freq ReS11 ImS11 ReS21 ImS21 ReS12 ImS12 ReS22 ImS22
1.0 0.3098241050126783 -0.3080768964138105 0.7647998101158683 -0.11664404566390281 0.8242129236449737 -0.2063615525117597 -0.14178379180441142 -0.2686907601541968
1.5 0.026142710864599166 -0.16527902878374104 -0.8179894118169394 0.18113226335702431 -0.8204774096235194 0.18298151062890058 0.05185134051542527 -0.2025704117799998
2.0 0.21997475175503772 -0.05407489326841743 0.7883996318570916 -0.15865783876549505 0.7878378068004256 -0.2415910260620924 -0.2066688839347874 -0.009094085906383166
2.5 0.10618447486438413 -0.25380100474328743 -0.7388815202239418 0.18791553975051814 -0.696748408061498 0.24491335955113236 -0.32313074587421103 -0.19521408018514644
3.0 -0.08967286796134104 -0.010902737716546238 0.7382440270872446 -0.25593423029195217 0.7419167250882035 -0.2583047803996482 -0.12138397903125027 -0.11099785373167402
3.5 0.17984901725283947 0.08429371520848429 -0.7055307308940648 0.27293062182970074 -0.6685109360943632 0.28210652360614163 -0.27673810185658754 0.13643576176779781
4.0 0.13377856821090228 -0.11538527633682248 0.6842392852842546 -0.29659157390928964 0.6459878323190626 -0.25992510680350867 -0.34680683881640556 -0.030194039678316083
4.5 0.034243461747185316 0.08133236464705543 -0.672869827262405 0.3162209073900011 -0.6724802630172242 0.31433577105412874 -0.09568869824813499 0.04210320615031381
5.0 0.3037031508095974 0.07347698997504248 0.6071537771885162 -0.30927348494059415 0.6099996856736675 -0.29281520627878477 -0.17792481396154888 0.24710552970460128
5.5 0.22135226966661176 -0.17925771788199357 -0.5823876388385895 0.34670739435885056 -0.6294690101410032 0.2971816055308541 -0.23579828577211656 0.06548823100769763
6.0 0.1044019541292148 -0.03381081192150802 0.6062865649422572 -0.3669505636366155 0.60687213331103 -0.36216477704970507 0.040586284521246366 0.05375486692686146
6.5 0.30603575333351957 -0.058399600428771396 -0.563817689178272 0.31866713760747717 -0.5916514970073351 0.31627257352741184 -0.03729943182131649 0.22166712696911295
7.0 0.1481824199480208 -0.2806892231776155 0.5212141077885546 -0.34495845142596715 0.5935223643580176 -0.3716899346573921 -0.11861294835868685 0.0039175615056928886
7.5 -0.0023134680064727624 -0.10519696915380003 -0.5434498409433208 0.39455543644118235 -0.547196394319715 0.391143520194122 0.09660215140453833 -0.066097823169721
8.0 0.18491680011693515 -0.10516631804625876 0.5475621595168179 -0.3550557214824545 0.5698861564708724 -0.37363527661063717 0.0074141418816606325 0.09407860335313585
8.5 0.023896788527600896 -0.2511744801026926 -0.5031485161723349 0.35770837254432997 -0.5168863166618849 0.4281958457928715 -0.1482366582481752 -0.10703012932894321
9.0 -0.09160014037035756 -0.017877926304565767 0.4933908317001171 -0.4173178111227304 0.4983371144155859 -0.4146214873242743 0.017767008266052476 -0.16652221538700968
9.5 0.12310877681940514 -0.012755035423612787 -0.5011524880742461 0.4109268439005503 -0.5093076636610022 0.43671733091585246 -0.08079460728966074 0.016324191039294528
10.0 0.008925030973453643 -0.140976124970415 0.47919587828781396 -0.4094057457589086 0.438227085125359 -0.44005433814538264 -0.25501666054129624 -0.10982188787223579
10.5 -0.028471209225869657 0.07836469972671282 -0.4520323865156969 0.4423647827991363 -0.45303813825609174 0.44021290612112884 -0.09884451245866402 -0.14968142631452044
11.0 0.20708537737009905 0.028765741167159534 0.42660702884811064 -0.4385923882539862 0.4277782546137014 -0.46188175921942454 -0.16494854773975087 0.07355579788187469
11.5 0.0930484912408338 -0.13643983545494565 -0.4082921839591177 0.453936651198525 -0.3924697161849988 0.4307743735633954 -0.3041642912603979 -0.0192153825172707
12.0 0.05499211664688825 0.027543220034932366 0.39906151656009525 -0.470069032439401 0.40566941047167826 -0.4648459646524329 -0.12881651279665485 -0.049655707340576144
12.5 0.24107944644851864 -0.05785455998485828 -0.37638573633695377 0.4357178489410426 -0.3669232500438777 0.45630355894700303 -0.13662196644328434 0.16433220707462176
13.0 0.07157848587816276 -0.21564352254440466 0.3428938961510431 -0.44917942020825524 0.36762933340458503 -0.43473225658544706 -0.25631230228152474 0.06719671978404405
13.5 0.004195832386928276 -0.04516541094357993 -0.3407778422348914 0.48352420482121533 -0.3497390819685296 0.48337080159002416 -0.055631917373435 0.005668896536290698
14.0 0.16083337196226238 -0.1113158578884595 0.35159542603677957 -0.44630893520988674 0.3361399702011731 -0.44790844554204495 -0.04076182197084686 0.1793182373178905
14.5 -0.019958642419200645 -0.21403861103502778 -0.3168849144338569 0.4372011858329608 -0.34293143359081835 0.46025627731401375 -0.16356758433216806 0.06784492772588033
15.0 -0.07564558310067926 0.0007363316838514348 0.2960065297587883 -0.48117789677856837 0.3027842388059169 -0.48566923730232453 0.016947530681549403 -0.0490070089029969
15.5 0.09268971264207221 -0.05591371288729709 -0.32039381776895975 0.4737447689370546 -0.3150259202426406 0.45989669248034 0.021897584568636344 0.10933400980465185
16.0 -0.05774669398965435 -0.12972061043268632 0.3006962922629165 -0.45838517850096844 0.29500162309287725 -0.49236468369781006 -0.1319547405454181 -0.011112886925908054
16.5 -0.05194501930772731 0.08955434124206058 -0.263756598405626 0.4847253200837831 -0.2626946954546077 0.4869519839261995 -0.004551341111007246 -0.13382081879061417
17.0 0.13603390791626788 0.010350818754745065 0.2642114538660794 -0.4937110655669855 0.2852751382701688 -0.4913287030760662 -0.007726503896411525 0.022335133510331538
17.5 0.004082795888921909 -0.08306781894994997 -0.25326205768256604 0.4917404343538688 -0.23568859210851714 0.49922148240059094 -0.19462009016387682 -0.057514836405772034
18.0 0.03166922011428133 0.08654065134846639 0.22768626431888267 -0.5015555000312918 0.23010627156608246 -0.4917875131505626 -0.08878230118415041 -0.15775698568946672
18.5 0.19303669811636523 -0.03623410805063365 -0.21380892287633307 0.48981447674036993 -0.22953026816360175 0.5150487863065983 -0.08717603067675024 0.017580901453541735
19.0 0.028762355560842987 -0.1394144051006073 0.18826675547433555 -0.49450214696865213 0.18893021270642937 -0.4897870918893372 -0.25700635918893144 -0.015931410212463446
19.5 0.02794844405834308 0.016294025097930008 -0.17422020281564823 0.5087852905239821 -0.19316037295512506 0.5022738270256976 -0.1473369623048234 -0.10316961120744786
20.0 0.1508069119897962 -0.09816666513411051 0.18101164937576042 -0.4818880374468852 0.16705605565200876 -0.5125312530715344 -0.10926949585179174 0.084260499971556
20.5 -0.038038608554447906 -0.16135225330703457 -0.15134078939117054 0.47128861338323846 -0.15706156422063355 0.4815197454878983 -0.2537904496620243 0.06038554706278621
21.0 -0.03921837853237268 0.02592730752824831 0.12979685182418932 -0.4969921612678747 0.14943644039570078 -0.5092292515833162 -0.12451362414235015 -0.032966845716859726
21.5 0.08116620870743088 -0.07106201087566258 -0.15217298114984756 0.4881034059589098 -0.1262836033697688 0.49381597489761897 -0.05454578004628623 0.12944560414389936
22.0 -0.08398564896958022 -0.10192632689385978 0.13869386833322628 -0.4675171874297223 0.13412615832012245 -0.48078212041281215 -0.18794069577123962 0.09453000566345347
22.5 -0.04243734195435937 0.09740237816508884 -0.10099260268859805 0.4830001682570601 -0.09958479353408235 0.5024835696047 -0.05848422543490516 -0.03211936558336231
23.0 0.09255230918701679 -0.00505429528729247 0.11426454911626611 -0.4962770839506903 0.10199509731509417 -0.4778131918311322 0.011729645399928587 0.0983104688473631
23.5 -0.04932198612226025 -0.03986162149609328 -0.11157318809798054 0.48324877088273394 -0.10182924679030482 0.488796487859129 -0.13108469722494281 0.05750688202054444
24.0 0.024584057631508803 0.1250796169460724 0.07756595545115283 -0.4850943349911791 0.06335580753270688 -0.48568447400117537 -0.03902335722353945 -0.09463789421160522
24.5 0.15163996567166038 -0.01169303384702641 -0.06978057887028759 0.4907164073108745 -0.08577434675794109 0.47879830405264356 0.022094453638426197 0.027616016374014764
25.0 0.0020099066082337417 -0.06468115896810092 0.059777160766125714 -0.49159852716008595 0.0605479867833423 -0.49043869634713355 -0.14568741860113438 -0.0036391328702161507
25.5 0.05665082907551196 0.06986822214046426 -0.03971797523204566 0.4928783071974599 -0.042182880229727 0.4730072500268154 -0.08791194170707424 -0.14171750487094387
26.0 0.1466146333668414 -0.07323196036878023 0.037016775219363744 -0.47566787444653236 0.053562084252811074 -0.4899675608967327 -0.032007597386641065 -0.01457714091023954
26.5 -0.032759237736839315 -0.10228366533005642 -0.014200467076363474 0.4698925906747175 -0.01945352729434793 0.4783343720686088 -0.20358687905029124 -0.0066871732074277115
27.0 0.008616757317045878 0.04706802316924215 -0.008018139797541391 -0.4768403913870144 0.018780548383550522 -0.47091646618700395 -0.15014381228258636 -0.12304905615646525
27.5 0.08670913624167177 -0.07497276278568324 -0.008116781942641456 0.46896245515295937 -0.006868336903683979 0.49358268331204425 -0.08324567216710721 0.015042682062682323
28.0 -0.08207836416474575 -0.06749598351424034 -0.001687761346544281 -0.4462664583921043 -0.009711085173745923 -0.465093777323334 -0.2285342479064879 0.04623902121798417
28.5 -0.012137275031679993 0.09990903735834931 0.03508648576340488 0.4493149621970037 0.014056925029804372 0.474810033387614 -0.16760778914649171 -0.06474373518755261
29.0 0.07295328166419829 -0.019012328481038246 -0.01977553821059992 -0.46415106935809636 -0.03856794920429283 -0.4748931491809851 -0.06977546142644203 0.06772842574473349
29.5 -0.0685620053920072 -0.0071945760040587545 0.01845265191230079 0.44617884916046646 0.0339755094942481 0.4523486451268146 -0.19480084379743529 0.09564503019936094
30.0 0.03324603183784055 0.13625757458074955 -0.049478853819902795 -0.4399693252807723 -0.05520692178403708 -0.46652651436747977 -0.12719676686834272 -0.028820942704539478
30.5 0.12135987649388184 0.0012387279350474028 0.050823245100843406 0.4524668331859816 0.06978809184584216 0.4495707821310267 -0.01419244105199282 0.07242865765754564
31.0 -0.01591182829325624 -0.0012811435254067715 -0.05070629764713896 -0.4521783694494458 -0.05800659138028955 -0.4440745099187623 -0.1361728439004836 0.09295949586748176
31.5 0.08410027349526879 0.11009432975536788 0.07206785437416639 0.4419503024356219 0.09282807060896492 0.44250203268721205 -0.0837876723260952 -0.05560676212323627
32.0 0.1448702725966323 -0.04692864576236315 -0.08155216082639766 -0.44131523165369785 -0.08392616047202196 -0.4285365513195628 0.018290750893725918 0.02590555448154918
32.5 -0.014152280846266843 -0.044972969159836486 0.0953903322441583 0.4363736719280125 0.08594126518082003 0.4341171017787877 -0.1146268203431555 0.04541339147515839
33.0 0.0630236497711356 0.06651983622193887 -0.11572748570203664 -0.43039840964237963 -0.112417492952326 -0.416900021387538 -0.09468121396145252 -0.10409856923157478
33.5 0.09648892017761869 -0.07076119892569635 0.10887717777207463 0.42377168405303756 0.09747109673347508 0.42270486921241496 -0.0035249386021289097 -0.025855424176513927
34.0 -0.06125646035913783 -0.03674053081672955 -0.11936805107179115 -0.40581758264145745 -0.11509871573701287 -0.420632968064936 -0.15019758822734028 0.011718793115358167
34.5 0.028556896146172576 0.09215714132569744 0.14289884223163501 0.39839030215926396 0.12254018249561366 0.4019765425779588 -0.1490810292191016 -0.11776467546349027
35.0 0.06810415844739574 -0.0321776693994885 -0.13179906025008237 -0.40583243853627593 -0.12259652997531824 -0.4225911137287681 -0.056590520209383995 -0.03369575806415908
35.5 -0.06644811352806053 0.015569260582709642 0.12976763201212163 0.38953041031751773 0.14032873004253543 0.4027644854607078 -0.18988564994614796 0.03249430517092568
36.0 0.05311031848401598 0.13134165693058122 -0.15230835918398397 -0.3744549303182484 -0.13813134768159577 -0.39603223681646726 -0.18450712955396922 -0.08191690899844876
36.5 0.10058447970683163 -0.000165736281132153 0.15427710671146147 0.39289650567593415 0.1579187642833028 0.40976904248740303 -0.0786857510977099 0.006905388948793772
37.0 -0.02056712508029663 0.03817362157551731 -0.14570436853721108 -0.3881884589974561 -0.1592081434513362 -0.385172697724188 -0.18580587001672996 0.08083837134016866
37.5 0.1022693452908958 0.1245201556742988 0.1627031888057927 0.3702497631473965 0.16986126141561958 0.39244130522541004 -0.17315828815119377 -0.034023784604350335
38.0 0.13713659170153078 -0.026453542203491623 -0.17531798111384633 -0.37894960414790485 -0.19000078762833805 -0.3833677127783036 -0.04727870065879311 0.03786834524591871
38.5 0.0060326322009594145 0.006907780150668861 0.1794493939172821 0.37984084819003894 0.1786480222874412 0.37135857929495675 -0.14137223464271734 0.10258492951805993
39.0 0.10836415500981829 0.07839876785437826 -0.19231108085107745 -0.365109260204059 -0.20248141919049828 -0.37048447366192905 -0.1316260138703337 -0.024634874154121016
39.5 0.11383097503705882 -0.06563549800609746 0.19720881684646469 0.36069137758471914 0.2074745321252668 0.3520028323374852 -0.005827990904448236 0.019421118535500145
40.0 -0.028011017352911456 -0.01119305442027365 -0.2090649905851014 -0.35025276149768764 -0.20036347455698267 -0.3543310982685926 -0.10204400485514217 0.07926057950525987
40.5 0.07336721860540366 0.07588125336271907 0.2230685249694847 0.33685530063629565 0.2241119865068902 0.3381394817110702 -0.11341081847251708 -0.060822814989549744
41.0 0.07392200059546998 -0.048401997792032254 -0.2181043574272394 -0.33949885200364877 -0.21499705468027988 -0.3302422512191721 -0.001364095499939682 -0.02601923879814177
41.5 -0.0466162842366256 0.027471095427752012 0.21637599870026475 0.32119118758565324 0.22007137825675208 0.3351140565117872 -0.10555170376921483 0.03674238254213922
42.0 0.07717055304005957 0.11217251110511982 -0.23256757273259251 -0.30543668074882946 -0.2293331191602881 -0.3109724908889263 -0.14124167161464898 -0.09035116418152768
42.5 0.08791236362035557 -0.01132719511531747 0.23478880028250498 0.3162440041085932 0.22419021472119077 0.319676818909275 -0.03700383746946353 -0.05547230233854783
43.0 -0.016049515574736745 0.05984992593618135 -0.22210775558852106 -0.3087404624232583 -0.2365126308011766 -0.3146900479674535 -0.14176727508203726 0.026716337012989
43.5 0.11765836280997599 0.11829974563948502 0.23194484242472582 0.28745062001298427 0.2341446626452845 0.2977760099697417 -0.1839656877320914 -0.07994532163434924
44.0 0.12354554915127311 -0.01809934840407834 -0.24467448262773647 -0.298701009703694 -0.24168015616922628 -0.3104670482304908 -0.07590549606668241 -0.04056583261152193
44.5 0.02096511632163066 0.04495824527933555 0.24167552335534082 0.30243839518545856 0.248936224230801 0.2942216308035425 -0.16216513214767275 0.059224683953093306
45.0 0.142697709143323 0.08469301647929171 -0.24516830577940227 -0.28319181614339406 -0.24649229823989452 -0.29035242695033103 -0.1991008966354713 -0.04001238428262728
45.5 0.12414653858159787 -0.05819174375277694 0.2600067281346157 0.2840087542175386 0.2694510546191303 0.29458707069801576 -0.07654906816372656 -0.003921997900192802
46.0 0.00920489642845975 0.01247958834340814 -0.2661944067197438 -0.2798994284325131 -0.26140014958079605 -0.27630299636236755 -0.1418780640441763 0.09291584798870774
46.5 0.11773847511147902 0.058351935195964544 0.2732885868582536 0.26592425388231883 0.2710566814112419 0.2785802958777215 -0.17238805676928928 -0.009054172974675366
47.0 0.08369474917150516 -0.06271141491003226 -0.2763921424572045 -0.2622589865568475 -0.2872331189624494 -0.2622016848964822 -0.042769476588118145 0.006372516783858568
47.5 -0.020801627661888224 0.030858259498639382 0.28025788682907293 0.24812903741066658 0.27656507203230185 0.25898663194549854 -0.10166233337451615 0.09377968696776916
48.0 0.10150591783595925 0.08330813660882876 -0.2871971507266216 -0.2295902550540168 -0.2951428862785253 -0.2493767692789218 -0.1386355096376268 -0.019233387967272933
48.5 0.07497308651973807 -0.028418067380172204 0.28924454779171416 0.23398287099150689 0.29361025064462765 0.23272042644143437 -0.01913644407969024 -0.023761637452638342
49.0 -0.00556978375445017 0.0671679970566109 -0.2800575380859691 -0.22579072837766323 -0.29050534351008156 -0.23608503448207582 -0.08166352343164897 0.06168266834394251
49.5 0.13057304746955894 0.10046395118556083 0.28173821390572346 0.204873249451064 0.30170955065317734 0.21508053888855394 -0.13842162251312037 -0.0516830732588208
50.0 0.10721659605317574 -0.019875995464149213 -0.29279266318581076 -0.2123288435954254 -0.2941717197548926 -0.21028960676325925 -0.033818975612807424 -0.05989544902041494
50.5 0.031602512418801666 0.06535618585662607 0.2839898343686495 0.21576177470943056 0.29990044283609935 0.21352066592653174 -0.09829499218335853 0.030721940513366703
51.0 0.15999422715364087 0.07692731851803779 -0.2824855178674658 -0.19731528295942632 -0.2947333772052478 -0.18788288179008902 -0.1703907910650597 -0.06273955042120387
51.5 0.12127948410926913 -0.05030237558207176 0.29549568535956183 0.19604196798598522 0.2961971933031027 0.19827065792875248 -0.07278060674748489 -0.06914458621301567
52.0 0.03919569877513877 0.033800417892525726 -0.30296281079880844 -0.20021582686686437 -0.30393067459901346 -0.18874523063366558 -0.13039730825070475 0.03873930023880793
52.5 0.15381933660387326 0.04348744730173366 0.29835938778728616 0.18803264691988178 0.2936666044200695 0.17777836131870128 -0.1962296648205576 -0.03895175952545461
53.0 0.09388017722620258 -0.07180418084778847 -0.30769627054918836 -0.18065175846348053 -0.30654162258626205 -0.1845391136908375 -0.09215637883676464 -0.04156886289240289
53.5 0.011453829035188367 0.030687999799658045 0.3141305414343349 0.16884342262897087 0.3061931288314712 0.17044864283815964 -0.13127910600153028 0.0699580149229141
54.0 0.12358136861766439 0.04739855305163718 -0.31795235268812216 -0.158219149302268 -0.302084669084802 -0.16922107936092506 -0.193258829149083 -0.0027741633578173093
54.5 0.06953970522339219 -0.04942306650682732 0.32021892414821546 0.15407394280840767 0.3228836282483806 0.16352561274427077 -0.08071974512697859 -0.015176762884062006
55.0 0.00753442780688307 0.06036891381388485 -0.3153183699369667 -0.1421646204953176 -0.3132475866843886 -0.15376016799308678 -0.10134750528002218 0.08676791073203033
55.5 0.13475492787451027 0.0706779676529407 0.3121896100198244 0.12439002062327383 0.3211262630558148 0.15192535837448784 -0.16446250997687384 0.009904403017606445
56.0 0.0894600151640363 -0.028330189425058747 -0.32029421557490434 -0.12676448991635858 -0.32948463858818794 -0.1320850452652934 -0.051548077644335936 -0.021837074558524523
56.5 0.03951495845661078 0.07282247475820487 0.311119279887577 0.12695923002663242 0.3212500543555155 0.1335848984147604 -0.07213978495879435 0.07375002833435705
57.0 0.16618318354623068 0.06086181927364101 -0.30030618709666024 -0.10814323145447675 -0.33281953079673454 -0.1203999737966429 -0.14341783196115093 -0.010215152121696226
57.5 0.11179822513013692 -0.04640997836012711 0.31577590862231436 0.10858836197179221 0.3278187549959287 0.10555557773095395 -0.04482716301846612 -0.05369654323238905
58.0 0.05922933974455703 0.04929750025989988 -0.3156158282147737 -0.11443637355599737 -0.329082739256427 -0.10863770060241973 -0.06797238913427701 0.040074867610610986
58.5 0.16870679920576548 0.028283368166114778 0.30542797644063147 0.10276734071681878 0.32690516750812765 0.08723867536403221 -0.15459270090253607 -0.03376965371354223
59.0 0.09781401013060272 -0.07421274608383728 -0.317527442615258 -0.09462171803191011 -0.3211175113838224 -0.0876497471200799 -0.06947882456045083 -0.07468244159347631
59.5 0.041496575374534245 0.029413165313959027 0.32677447987941066 0.09230061539548295 0.32701619215764244 0.08450531147065608 -0.09418779271876386 0.02608719123268876
60.0 0.14425052232168492 0.015382708682707717 -0.32248241534882877 -0.08611186323807778 -0.31622859703780665 -0.06821934230563738 -0.1840508678151698 -0.030120522909198453
60.5 0.06599644590850762 -0.06703412203259367 0.3263525785397005 0.07633989386834268 0.3184172917979426 0.0727728233643457 -0.1001631121152804 -0.06666853007592138
61.0 0.023019134752504854 0.04907117576969534 -0.32827820915937445 -0.06371024126598278 -0.3230365216703742 -0.06460407933874313 -0.11308293553804637 0.043484460443340624
61.5 0.1370403121293209 0.03677432537544759 0.3224096019255069 0.051505654368997025 0.30979701994564895 0.05818989151980184 -0.19657253719570278 -0.0017490346959823768
62.0 0.06860293306445903 -0.040033503864013324 -0.32871085059158583 -0.04688223587800031 -0.3233161086014414 -0.05913913854092629 -0.10843891667330004 -0.03948458923642533
62.5 0.04552501969537898 0.07306025222565578 0.3174505220148336 0.04381622860398543 0.319443938060505 0.04918561587251533 -0.10178781531108447 0.068125501834282
63.0 0.160884270207473 0.039387097710448404 -0.3067295420533077 -0.028068939685866212 -0.3163654125855071 -0.050047562105689 -0.18118828182666194 0.024205274945900968
63.5 0.09124858594983176 -0.043068529449511304 0.31626506994527154 0.02571982407598204 0.32863353975168075 0.037052392145687715 -0.0867066100925175 -0.024819927896559728
64.0 0.06949940776299349 0.057195466090177366 -0.31408407336409977 -0.029036950356524746 -0.3206454637913887 -0.03284671879104647 -0.07238774189592354 0.0710017395229432
64.5 0.17273379127866575 0.013306246686923639 0.301048868950029 0.02228674408751668 0.3261711898160722 0.03050360804336327 -0.1524753979400901 0.023079513427794577
65.0 0.09065145380844578 -0.06940590029295277 -0.3094488275473202 -0.01274129146493257 -0.3261806701873527 -0.009348409272033927 -0.06823012498367909 -0.04163999890115883
65.5 0.06293324695561785 0.03225052721851861 0.3172129209011833 0.01569659481477166 0.3217261710380992 0.014034014230902626 -0.05471533412403844 0.04758264328896476
66.0 0.1565937950692278 -0.008571928162516161 -0.30734664023378744 -0.01129133218982246 -0.3261525056063683 0.0011750567427534133 -0.14380761309317305 0.0009659821977195802
66.5 0.06366103548613976 -0.07669215159222223 0.3121191497525417 0.0010137345483896968 0.3171512884074397 -0.012868093335171684 -0.07586615876527658 -0.06890954740353776
67.0 0.04169431631032696 0.03663892695163804 -0.3181572855448716 0.008929091426675364 -0.3233724496172828 0.009899176018452692 -0.06537265540108128 0.021783808004747943
67.5 0.13419151239669475 0.0013544699973706826 0.31201994228627244 -0.014544721391320391 0.3132272032763006 -0.027002943104805492 -0.1638493581619301 -0.012270577457660125
68.0 0.04840576521671728 -0.051310673605750014 -0.3143399456727826 0.02290116778436975 -0.30694897263309523 0.02792966689792334 -0.10128746253447524 -0.07457439672559038
68.5 0.04582564670288964 0.06042829625553656 0.31138293019229135 -0.03231306658280241 0.31176583718964546 -0.0333279148005748 -0.08795928230055874 0.019398786727399503
69.0 0.1498363010642952 0.01586165845576736 -0.3016788415244083 0.041543533604978644 -0.2969519272899776 0.040789073047415705 -0.18183185680165811 0.002490864592370803
69.5 0.06794451794156547 -0.04062033015736505 0.3039272384009327 -0.04795065772634563 0.3012154843309566 -0.039622837555306795 -0.12272691245364467 -0.05765194441922554
70.0 0.07279336287965875 0.06020326399438975 -0.29788232279498356 0.04740485276304934 -0.30198411151532045 0.04907723699983099 -0.09616105323349115 0.04030932608753193
70.5 0.16721842857920197 -0.0011699401497520209 0.2841132866428702 -0.053378358990363084 0.28988475695999166 -0.04675860072153136 -0.18392939899945818 0.028704585993591134
71.0 0.07701621894335356 -0.05962073472978789 -0.2887264843833643 0.06131629584219978 -0.2988942132107824 0.05290915822852362 -0.11825736960235125 -0.033953166095718086
71.5 0.08013688825549299 0.03784980795733629 0.2906736700915422 -0.057484415446212606 0.292286962451804 -0.05987466805594619 -0.07886711494972058 0.056303210579719695
72.0 0.15809830614046624 -0.0250121381672183 -0.2800804103893456 0.05728791040399685 -0.2910274229699712 0.05614485285533766 -0.16033724312232042 0.04282173396297241
72.5 0.05815838537077925 -0.0748242407839097 0.28208829829394916 -0.06879532967739357 0.295354289244728 -0.07143302600846416 -0.09703097612999942 -0.03138639248480001
73.0 0.0581275399712845 0.028123472476131568 -0.29178234148047366 0.07387475931935737 -0.2881252001415658 0.07294306121486911 -0.054552645971573506 0.04710378157703272
73.5 0.13473778370148418 -0.028039341236814237 0.28320468265973747 -0.07300456567929477 0.2942028463652586 -0.07723902996245365 -0.13900162644713943 0.03151731703837093
74.0 0.03624305714688783 -0.061043292471435875 -0.2839726335704589 0.08418203491619114 -0.2881484810838862 0.09358693432253667 -0.08584660293969024 -0.05012910696564542
74.5 0.050162535042459794 0.04788414208277866 0.2833007590598051 -0.09410287291866068 0.2865375616084713 -0.09206661841669045 -0.05036794508431426 0.022283579648170904
75.0 0.13321234766192266 -0.009623635703963615 -0.2769983555896276 0.09906068779001681 -0.2852482682234348 0.1032867650552275 -0.14130873117057663 0.011326447474393018
75.5 0.043841360164449596 -0.039542459162778876 0.27726009978140564 -0.10858503934227409 0.27468542325523115 -0.11050442139236344 -0.10479164543765798 -0.06981692682690865
76.0 0.07135011845276791 0.05875302386135813 -0.26789716825328624 0.11185731577646552 -0.27949882631246625 0.11152949923468104 -0.06453814494795813 0.004466449596900281
76.5 0.15145398891310313 -0.013080600869128533 0.2566481451104129 -0.1158336029345083 0.26605029266258773 -0.1219095341394061 -0.1602005918462232 0.00899534345439883
77.0 0.05853911601104193 -0.04652341082318601 -0.2589120077387247 0.12603148889803328 -0.26062979738970254 0.1216729805034527 -0.12836916361158418 -0.06504550481272034
77.5 0.08582876712585243 0.04189718593116224 0.2571174007595256 -0.1223914139852806 0.2620492059968243 -0.1276867577264543 -0.08627704697552255 0.012438908144349536
78.0 0.14964656745292426 -0.035055632252374604 -0.24380030417551335 0.11883561988032568 -0.24755525900735395 0.12880066194179465 -0.17143517988383902 0.027802989320786578
78.5 0.05025038688468071 -0.06460395971090882 0.2445627542424746 -0.13090165014347052 0.25180051613029164 -0.13121790752270773 -0.13854610032537046 -0.044352811351111875
79.0 0.07358347047146926 0.026248693063456983 -0.2480462624294807 0.13092840565085126 -0.24608297347240687 0.13909883839822226 -0.08354860219469488 0.031437494995877516
79.5 0.13105798989438766 -0.04612626877024749 0.24186347515257875 -0.12638861335014162 0.23880865621639713 -0.13266335759655545 -0.16211406132723324 0.04837440888080774
80.0 0.027270465737432876 -0.05911729630897594 -0.2390711455786218 0.13715005342161204 -0.2445182606312419 0.14226357938784207 -0.12556204263811271 -0.028148078982018314
80.5 0.05902511550585586 0.03656222607211746 0.2420146886653282 -0.14502275322439814 0.2366913790320116 -0.14570662227555767 -0.06179643094549306 0.03583072210243638
81.0 0.11624304619282623 -0.03280968852079537 -0.23956407149732722 0.14417274239686334 -0.237785425544982 0.14123847497872194 -0.13778581583307228 0.05115764698303403
81.5 0.02334029522529832 -0.038335994550779545 0.23544809100605993 -0.15315659483871763 0.2358791817868969 -0.15659983940193675 -0.10806316627870378 -0.03374231302058058
82.0 0.06900018757076763 0.05458315100757605 -0.22871552953172275 0.16103008255298837 -0.232146630945966 0.15519691947856804 -0.04649687258157378 0.02013293887921667
82.5 0.12981106543136006 -0.023504487341664042 0.22354850022890355 -0.16569687635798366 0.23373900527009545 -0.15924926996173341 -0.12593646143015644 0.035246997790517064
83.0 0.03920969636370432 -0.031707286792218216 -0.21821063649755498 0.1724766530403682 -0.2223224175188345 0.1711668896807259 -0.10860088085726909 -0.052252831365099534
83.5 0.08968352260923328 0.047107810905773775 0.21439669000188508 -0.17366928234928683 0.22193230619732263 -0.1689759148989309 -0.051217976912491844 -0.002513949216391035
84.0 0.13870144010520966 -0.04045710703331443 -0.20092823067953128 0.16985426430470077 -0.2185949513362486 0.17887745403164332 -0.13349452314228502 0.01994042277240543
84.5 0.04160603104470168 -0.04885027529187632 0.19820988356631136 -0.17979250183402878 0.20718141695598657 -0.18134748603798662 -0.12799924688943817 -0.06045485144160961
85.0 0.08550757777842637 0.02784999501838656 -0.19902539253337198 0.1781819966489117 -0.20955539453630834 0.1855768549050992 -0.07125331653194741 -0.009657572469594564
85.5 0.12223549732990502 -0.05511181376532411 0.1934968487558165 -0.17157892835257577 0.19823910287762825 -0.19020719829552493 -0.1527480033091954 0.02574872477542414
86.0 0.022489199640492792 -0.05097112630452457 -0.18890302546855547 0.18167128254632064 -0.19235522018893292 0.18805566828214001 -0.14712015259159764 -0.04983072437265956
86.5 0.06900981751784449 0.0285680887548283 0.19100160470633357 -0.18540029082939635 0.19056390720254857 -0.1982179836336575 -0.08427294333683993 0.003730371404179087
87.0 0.10608419019924772 -0.05030211273826592 -0.18970555586943105 0.18089025756405538 -0.1801047913126134 0.19181561011969697 -0.1532174154448134 0.04453904836473593
87.5 0.011302498171985606 -0.03565631157277134 0.18138330863088561 -0.18693865379780109 0.17801870871179482 -0.19382102759997694 -0.14809672694798523 -0.029860222869560422
88.0 0.06973566246881335 0.04719220298487625 -0.180181753930333 0.197178317769453 -0.17326183376944154 0.2017597345864055 -0.07387199614848595 0.01730498873966741
88.5 0.106338233619212 -0.034526277004826945 0.178282399519375 -0.19844456494982368 0.1689439582764362 -0.19374609487732244 -0.1380052023770614 0.05760622549715957
89.0 0.021080894725329414 -0.017914088687374926 -0.17300075422373307 0.2046005962469225 -0.1690318658661376 0.2002894889234391 -0.1307240634418552 -0.021089586335468372
89.5 0.08607983455016256 0.04943799659924588 0.1641974046667286 -0.20844289269409735 0.1625065973527153 -0.20427681750033166 -0.054814831403010786 0.01329794626810251
90.0 0.11919358774781022 -0.039854893637799205 -0.15753107019976367 0.20837010049343627 -0.1641081226476035 0.20005999250033568 -0.11785757041257451 0.05188983667254666
90.5 0.032476807729840344 -0.027398662789598176 0.14998474973818937 -0.21349888084857607 0.15646380111741676 -0.20975170530972972 -0.1194750848049614 -0.03183845427793781
91.0 0.09356963905098131 0.0323644246578217 -0.14716408341750858 0.21355720297231717 -0.15248821404815865 0.20708547467323077 -0.04947939330191755 -0.005455917599447344
91.5 0.11354611456166311 -0.05753976950612624 0.1405722857071096 -0.20843125867935264 0.15382414810244668 -0.21130948326209603 -0.1130547681620941 0.034416934094552994
92.0 0.021067928949870703 -0.036667877322608844 -0.1323689657588908 0.213397150808481 -0.14283931123620258 0.21749887993076056 -0.12792826861794654 -0.04658493815235671
92.5 0.08051786049950425 0.02506669164878773 0.13397952524160756 -0.21395309289663095 0.1431245943583402 -0.21791591653302253 -0.06207377567541559 -0.02177339562369846
93.0 0.09773197882838354 -0.059823978816923924 -0.13295400173729374 0.20808073811400976 -0.13825034030322825 0.22653318226836977 -0.1282561066159202 0.027261757895939546
93.5 0.006553129927545018 -0.02672982507275128 0.1254113788825648 -0.21223161618297381 0.12645423621684604 -0.2229602289712733 -0.1464872267266009 -0.04653508038035364
94.0 0.07110268452814547 0.03683663338371583 -0.1237055378389988 0.22027538242206116 -0.12771582111141114 0.22810151284873026 -0.07661218185073072 -0.019799053660207424
94.5 0.08891416976907598 -0.044542409469328026 0.12482771218895856 -0.2156606718497365 0.11605396072730889 -0.2281441402773648 -0.13577357194169112 0.036960500512503144
95.0 0.011298616994998954 -0.008805267007405316 -0.11799368143012097 0.22101869823829673 -0.11269941262385115 0.22607945307430494 -0.15824791638888602 -0.031186636591446104
95.5 0.08529406543622763 0.04920386848477963 0.11141355171644919 -0.22797973778469807 0.10669478606122262 -0.23321375503994837 -0.08315232807373082 -0.005616470230767634
96.0 0.10008446595287497 -0.038464253508782076 -0.10906835502017734 0.2300329350817668 -0.09964015959361289 0.22750837199762622 -0.1311573152666056 0.052939093424423427
96.5 0.025622815825697462 -0.006423881515982247 0.099881975540821 -0.23111254699747688 0.09776445381572578 -0.22902205231934575 -0.14915168106711846 -0.014531710562495113
97.0 0.09885214840917668 0.03833295491592934 -0.09381417110661346 0.23394325188089554 -0.08993932791514528 0.23388649015762306 -0.07126842974462122 0.0016770575890543813
97.5 0.10283479576659828 -0.053041800976389906 0.08717905915631297 -0.22972002576490147 0.08994534861604826 -0.22682834587604153 -0.11309748166088499 0.05763259702815335
98.0 0.02292130355249 -0.01830013964355488 -0.07763751074768041 0.2328812042653075 -0.08538604467323556 0.23175328741874696 -0.1359235427062525 -0.01387331183344772
98.5 0.09250303438906539 0.02493413947674811 0.0765922945062116 -0.23165771542931024 0.07836172759431824 -0.2297836984123648 -0.057979974498281676 -0.008056412986009134
99.0 0.08782810086692643 -0.06044144574944907 -0.07481014740716015 0.22348035742439765 -0.08244198189470277 0.22969904214604017 -0.10066728865995948 0.046166047338333474
99.5 0.008095753762556359 -0.014242075003793153 0.06480601315058054 -0.2240975651588612 0.07244631850429954 -0.23337260116209432 -0.13166624569233346 -0.026751972354663422
100.0 0.07977371929762168 0.029946018200864233 -0.06410894646516824 0.23044051834035434 -0.07008318093418837 0.22873652269766384 -0.060166130395503635 -0.025992328443575335
100.5 0.07408598632818368 -0.04884668807549472 0.06763272637877236 -0.2256855565277956 0.07020934794808514 -0.23552484855097142 -0.1029332311419587 0.031246059589800066
101.0 0.005468208786788372 0.002494212934013292 -0.05987768119739963 0.22610790105744513 -0.05939541398372963 0.2352068478629703 -0.14257715597429768 -0.03531142778558561
101.5 0.08523452777249658 0.043867149008377876 0.05515236418053472 -0.23369660988014074 0.05972090855553969 -0.23637083239128995 -0.07612780915389274 -0.03521829768493504
102.0 0.08062481727723408 -0.03782835213623926 -0.05583008130361 0.23256993848435378 -0.05290698482742176 0.24065334915335906 -0.11640622050228654 0.029254277931986136
102.5 0.018533858621671638 0.011946153847573315 0.04927131174054512 -0.23323992920145997 0.04484745115007747 -0.23726350903823537 -0.15683532137685194 -0.028885747466509574
103.0 0.10166647540248565 0.04174011184094876 -0.04054542665522374 0.23600255628225303 -0.043491026980999214 0.2415812520090528 -0.08707949575849745 -0.026829478791212016
103.5 0.0934714810505291 -0.045949243908435966 0.03618394874092055 -0.23617448166562816 0.03342671551304303 -0.23959626075149118 -0.12073676670842202 0.04180586263343077
104.0 0.026051353889858762 0.0027190832559556197 -0.028424224096126178 0.2392655964668857 -0.03053840330474343 0.23614562858874616 -0.1596776010595219 -0.012486889243724179
104.5 0.10132724204393222 0.026003615552641572 0.023202476017145802 -0.2368186447737781 0.022513939722569973 -0.24035744394257022 -0.0868553616354927 -0.014522894213126249
105.0 0.08314707880174264 -0.05761522730910881 -0.019890246720112425 0.23130922141114865 -0.018248309374507346 0.23441623846886328 -0.1100440343373361 0.05250647291462946
105.5 0.015528374421113973 -0.0011560606306507848 0.010573534171461306 -0.2298593201301738 0.015976449291528406 -0.23424669618728658 -0.14786002682611799 -0.0014439297407749302
106.0 0.0904709995929926 0.02405652314455845 -0.008632831647183124 0.23097013671053596 -0.0064341546361618715 0.2345900788148034 -0.07252655114213068 -0.013051978341277299
106.5 0.06738808944250452 -0.05166492828792567 0.011284783905000094 -0.22529458058707602 0.00855531397133873 -0.2294694015020664 -0.09554659589386778 0.05089919669654521
107.0 0.0077851962972813 0.010850426834164302 -0.002059095293409539 0.2227505433010135 -0.0030816010528681454 0.2315213685433088 -0.13546199384816957 -0.005745793341698174
107.5 0.08834885393583848 0.03556231932453908 -0.0015936782386495908 -0.22666275851423623 -0.0035172114863087113 -0.22926913265238513 -0.06717192956448355 -0.025657554985634733
108.0 0.06659910292660369 -0.03816679663311252 -0.0027140310326746638 0.2272047611668248 -0.0005166203757361404 0.2281543096952225 -0.08754409166903065 0.03611659315203558
108.5 0.017998950247813082 0.026665385145511727 -0.0029366695402675887 -0.22388629541098176 -0.008407243113449186 -0.2287412602889487 -0.1379251372572101 -0.01781641109294902
109.0 0.10053549867982364 0.04007400276138298 0.010495201017216908 0.2260184683543456 0.010094193788121123 0.22485620591077843 -0.07441621602992496 -0.0391268751206399
109.5 0.07795509965701648 -0.03661386520737172 -0.011073150366066636 -0.2306818971081785 -0.010267590057236797 -0.22996064795987536 -0.09484121374435343 0.02522750331611633
110.0 0.030654170099942712 0.022862464521771327 0.017621080722698555 0.22984331736772387 0.019765663349565837 0.22515879517009463 -0.15059471956345186 -0.02022199698754584
110.5 0.10966988283038756 0.028008856246932792 -0.025191070549224797 -0.22771463097839492 -0.0200318943264323 -0.2260589673581061 -0.09036500804947221 -0.04075316339443227
111.0 0.07715338306091804 -0.04818506589296436 0.02973837236816021 0.2269224096529859 0.02700950854801625 0.2298185290544523 -0.10699225810533963 0.028817221557451193
111.5 0.027839560197905983 0.013692111462469951 -0.037880062450571315 -0.2241297197571132 -0.0317347584045512 -0.22328026239912335 -0.16227998139083163 -0.009490018661555246
112.0 0.10072982055726915 0.018594219929394883 0.04185739400870158 0.21987600908058286 0.03627104955466714 0.2287229407792012 -0.10057179693992051 -0.031163922838284383
112.5 0.062321392743258305 -0.04945848997503686 -0.0418267932499928 -0.21484236878617075 -0.04360718572342631 -0.22559965163878684 -0.10768379056240651 0.040947499877845926
113.0 0.01736915193694303 0.019988684461234918 0.04816130799530862 0.2117490659448501 0.04554369915616451 0.22120153816104757 -0.15684674891010522 0.005150699340163881
113.5 0.09601686055537463 0.02636286645665426 -0.05253939721231558 -0.21237889032711535 -0.05386479954427446 -0.22104339462858838 -0.09422792427001005 -0.021289811847876722
114.0 0.056439527335197304 -0.037484518526074206 0.04862113290359899 0.21094094413757025 0.055295145922083 0.2157917275418758 -0.09181235945017847 0.04564662350745058
114.5 0.021216683789440638 0.034387469866113046 -0.05341504395501138 -0.20551859656654056 -0.057891149602714166 -0.21571134242571574 -0.14408328185360228 0.010028332853471223
115.0 0.10181964538293639 0.03435880071948318 0.05986466640418837 0.2076203809690007 0.06776638155387119 0.21088408872077266 -0.08075910509898808 -0.024298044921964246
115.5 0.06475975992681694 -0.029802382130424507 -0.05780153675334231 -0.21176490115889512 -0.06409394251983944 -0.2073398769814043 -0.08070429431752182 0.03794421952204068
116.0 0.03607058778001549 0.038911853274326 0.06075105589768254 0.20750509828095529 0.0684516174840228 0.20547274222174905 -0.13675545376678278 0.0016139182106997667
116.5 0.11588007942464713 0.0285752205928322 -0.0684026872852054 -0.20531709205915885 -0.07222419003719102 -0.20013418342373743 -0.0821940108084047 -0.03767067358190639
117.0 0.07090249968728132 -0.03729071772401468 0.07155948199237912 0.20780612402661836 0.0709690288755596 0.20461949314998815 -0.08207011688213481 0.024665411069825456
117.5 0.04109211568495419 0.029042222972549693 -0.07850946985550113 -0.2058223189685243 -0.07903953844532396 -0.20062679283439266 -0.14083542949681035 -0.006941341942751534
118.0 0.11210609472681612 0.014651668069098516 0.0840127955572827 0.20219668292657123 0.07801057364797577 0.19765219027574824 -0.09471993795710226 -0.04659580817968442
118.5 0.06105711624907068 -0.044824905959689736 -0.08667120564888033 -0.19935958597551307 -0.08011115728064308 -0.20040472534996814 -0.08940635063235937 0.017372268676820044
119.0 0.031889898984092856 0.027671895006314784 0.0933034847852314 0.1931331974541209 0.0864817042542454 0.19569734803728525 -0.15295851147659312 -0.005044769228954172
119.5 0.10214483816638535 0.01577323193105543 -0.09674301956310287 -0.1902339540986315 -0.08746039370580844 -0.19653529876484854 -0.10872174237444315 -0.04295029210897066
120.0 0.050329087611290214 -0.035933903699885104 0.09349453000096307 0.18710744083799075 0.09376138253197712 0.19573642682893153 -0.09704751016927413 0.024492682307504107
120.5 0.02836466833230491 0.0375306477127132 -0.09667520427689297 -0.18027063838766016 -0.09559704254800025 -0.18956951782813788 -0.15752956764946233 0.008263321764075796
121.0 0.10467786247185912 0.024818745612367316 0.10241100461679799 0.18034469635332975 0.10052587711584196 0.19182205483491818 -0.1114456594436228 -0.031248155454824924
121.5 0.05478585838524287 -0.025769300790367575 -0.09967287910041953 -0.18220907921747845 -0.10793644838536354 -0.18929258560821952 -0.09455765374724279 0.03471136216251451
122.0 0.04172187393246471 0.04757071482987956 0.10095988559689353 0.17636346693763189 0.10612232943062327 0.18321962110898263 -0.15063517592831785 0.018643170105122737
122.5 0.11573941879149525 0.024132561483552563 -0.10654566855109715 -0.17598221855139687 -0.11574788707881041 -0.18296594356761325 -0.10093254557336867 -0.02484057659977754
123.0 0.06421846129729197 -0.02768962143982425 0.10861680224760799 0.17837099404265078 0.11700617083678844 0.17672122450704783 -0.0799586080199348 0.03405920324950139
123.5 0.0520924776796447 0.04133287662861158 -0.11073580732564951 -0.17492453867953645 -0.11878043079619997 -0.17558582758564645 -0.13650992586985872 0.0177769245733151
124.0 0.11916793223865811 0.011556382897689092 0.11648495875050488 0.17152916687347108 0.1250640433842168 0.16863780921371072 -0.09364430121855243 -0.03184204938734676
124.5 0.06102718394312334 -0.0369747907329647 -0.12169907032519565 -0.17194151184029882 -0.12147470728159529 -0.1652042078012037 -0.07263269386146552 0.022877951173194046
125.0 0.04658328936007396 0.03241539434394017 0.1273808122445652 0.16801895911231574 0.12662907876053475 0.16406592544399326 -0.1333672413937722 0.008798381410949806
