! rapidmom parametric dataset (SG13G2 open stack, IHP)
! device = spiral
! family = spiral_N2
! stack = IHP SG13G2 (open PDK)
! Dout_um = 80
! width_um = 10
! spacing_um = 3
! sides = 8
! n_ports = 2
! n_dof = 5446
! cell_um = 2.0
! sweep = ROM (rational fit from adaptive anchor solves)
! rom_converged = True
! f_points = 100
! f_min_hz = 1.000e+09
! f_max_hz = 5.000e+10
! tool = rapidmom (2.5D MoM, A-EFIE)
! N = 2
# HZ S RI R 50
1.000000e+09 5.353733571e-03 1.958841071e-02 9.931300251e-01 -2.622326736e-02 9.931305714e-01 -2.622369403e-02 5.352480923e-03 1.959426532e-02
1.494949e+09 5.744826140e-03 2.948042653e-02 9.917512594e-01 -3.844329393e-02 9.917513130e-01 -3.844359778e-02 5.737561727e-03 2.948623420e-02
1.989899e+09 -1.097498919e-02 5.416200884e-02 9.727127606e-01 -3.531470560e-02 9.727131209e-01 -3.531497208e-02 -1.080077121e-02 5.431912996e-02
2.484848e+09 -4.790872020e-03 6.461365992e-02 9.763303794e-01 -4.655291213e-02 9.763306688e-01 -4.655312296e-02 -4.592855877e-03 6.474209836e-02
2.979798e+09 2.218847763e-04 7.390164385e-02 9.783585607e-01 -5.886204587e-02 9.783588034e-01 -5.886219827e-02 4.258937877e-04 7.400013882e-02
3.474747e+09 4.458296557e-03 8.272852902e-02 9.791674149e-01 -7.153880680e-02 9.791676273e-01 -7.153890278e-02 4.654892720e-03 8.279892679e-02
3.969697e+09 8.230485202e-03 9.138709391e-02 9.790549864e-01 -8.427824163e-02 9.790551800e-01 -8.427828472e-02 8.409314221e-03 9.143234618e-02
4.464646e+09 1.175369363e-02 9.999373253e-02 9.782301815e-01 -9.694790073e-02 9.782303642e-01 -9.694789468e-02 1.190641696e-02 1.000171100e-01
4.959596e+09 1.517101796e-02 1.085884257e-01 9.768348424e-01 -1.094907897e-01 9.768350200e-01 -1.094907381e-01 1.529063316e-02 1.085932354e-01
5.454545e+09 1.857704796e-02 1.171780271e-01 9.749656597e-01 -1.218831764e-01 9.749658365e-01 -1.218830823e-01 1.865746092e-02 1.171675292e-01
5.949495e+09 2.203456115e-02 1.257553477e-01 9.726898116e-01 -1.341158986e-01 9.726899910e-01 -1.341157650e-01 2.207031831e-02 1.257327481e-01
6.444444e+09 2.558542084e-02 1.343077007e-01 9.700552176e-01 -1.461859484e-01 9.700554023e-01 -1.461857779e-01 2.557153996e-02 1.342761687e-01
6.939394e+09 2.884673030e-02 1.357608145e-01 9.656002654e-01 -1.661741312e-01 9.655997419e-01 -1.661745395e-01 2.852446291e-02 1.358058020e-01
7.434343e+09 3.306942777e-02 1.512801963e-01 9.638422702e-01 -1.698360055e-01 9.638424716e-01 -1.698357678e-01 3.294270575e-02 1.512402759e-01
7.929293e+09 3.703296631e-02 1.596725296e-01 9.603117260e-01 -1.814158706e-01 9.603119382e-01 -1.814156023e-01 3.684358058e-02 1.596331885e-01
8.424242e+09 4.115546843e-02 1.679852521e-01 9.565225838e-01 -1.928317878e-01 9.565228082e-01 -1.928314909e-01 4.089955518e-02 1.679497218e-01
8.919192e+09 4.544090432e-02 1.762069467e-01 9.524892083e-01 -2.040828802e-01 9.524894460e-01 -2.040825564e-01 4.511479551e-02 1.761785091e-01
9.414141e+09 4.865714645e-02 1.797142383e-01 9.453560311e-01 -2.202566134e-01 9.453563179e-01 -2.202571551e-01 4.806177215e-02 1.798369554e-01
9.909091e+09 5.450486796e-02 1.923367021e-01 9.437381292e-01 -2.260852854e-01 9.437383963e-01 -2.260849130e-01 5.402808350e-02 1.923325279e-01
1.040404e+10 5.928142710e-02 2.002268184e-01 9.390415639e-01 -2.368332716e-01 9.390418471e-01 -2.368328773e-01 5.872450276e-02 2.002399392e-01
1.089899e+10 6.421774468e-02 2.079898585e-01 9.341436964e-01 -2.474099382e-01 9.341439962e-01 -2.474095236e-01 6.357769789e-02 2.080238006e-01
1.139394e+10 6.783834582e-02 2.122128525e-01 9.258351245e-01 -2.609972935e-01 9.258353268e-01 -2.609967924e-01 6.697466530e-02 2.124380191e-01
1.188889e+10 7.455477763e-02 2.231074214e-01 9.237789709e-01 -2.680413350e-01 9.237793059e-01 -2.680408844e-01 7.374017842e-02 2.231938314e-01
1.238384e+10 7.994657946e-02 2.304499290e-01 9.183286804e-01 -2.780920934e-01 9.183290337e-01 -2.780916271e-01 7.904086655e-02 2.305681022e-01
1.287879e+10 8.548055692e-02 2.376412310e-01 9.127103847e-01 -2.879636812e-01 9.127107566e-01 -2.879632006e-01 8.448138114e-02 2.377949252e-01
1.337374e+10 9.115128372e-02 2.446767376e-01 9.069318005e-01 -2.976543234e-01 9.069321915e-01 -2.976538302e-01 9.005645182e-02 2.448697594e-01
1.386869e+10 9.695308747e-02 2.515523588e-01 9.010004918e-01 -3.071623862e-01 9.010009019e-01 -3.071618817e-01 9.576056140e-02 2.517885588e-01
1.436364e+10 1.028801065e-01 2.582644745e-01 8.949238909e-01 -3.164863979e-01 8.949243204e-01 -3.164858837e-01 1.015880027e-01 2.585477421e-01
1.485859e+10 1.089263373e-01 2.648099070e-01 8.887093125e-01 -3.256250665e-01 8.887097615e-01 -3.256245440e-01 1.075329258e-01 2.651441657e-01
1.535354e+10 1.150856749e-01 2.711858977e-01 8.823639611e-01 -3.345772916e-01 8.823644297e-01 -3.345767624e-01 1.135893782e-01 2.715750993e-01
1.584848e+10 1.213519473e-01 2.773900850e-01 8.758949353e-01 -3.433421740e-01 8.758954234e-01 -3.433416393e-01 1.197513394e-01 2.778382045e-01
1.634343e+10 1.277189452e-01 2.834204839e-01 8.693092275e-01 -3.519190209e-01 8.693097351e-01 -3.519184824e-01 1.260127500e-01 2.839315141e-01
1.683838e+10 1.341804483e-01 2.892754677e-01 8.626137232e-01 -3.603073502e-01 8.626142502e-01 -3.603068092e-01 1.323675381e-01 2.898534137e-01
1.733333e+10 1.387165469e-01 2.936027347e-01 8.536448059e-01 -3.676689607e-01 8.536455566e-01 -3.676679941e-01 1.368413417e-01 2.943936499e-01
1.782828e+10 1.473621688e-01 3.004543676e-01 8.489203094e-01 -3.765175821e-01 8.489208745e-01 -3.765170406e-01 1.453330298e-01 3.011781836e-01
1.832323e+10 1.540700842e-01 3.057766653e-01 8.419356005e-01 -3.843395721e-01 8.419361844e-01 -3.843390324e-01 1.519317183e-01 3.065794341e-01
1.881818e+10 1.608479348e-01 3.109202798e-01 8.348674864e-01 -3.919732130e-01 8.348680886e-01 -3.919726766e-01 1.585997877e-01 3.118060039e-01
1.931313e+10 1.676897418e-01 3.158851243e-01 8.277222530e-01 -3.994190567e-01 8.277228732e-01 -3.994185250e-01 1.653313967e-01 3.168577931e-01
1.980808e+10 1.745896196e-01 3.206713747e-01 8.205060510e-01 -4.066778492e-01 8.205066887e-01 -4.066773235e-01 1.721207944e-01 3.217349600e-01
2.030303e+10 1.815417875e-01 3.252794547e-01 8.132248909e-01 -4.137505236e-01 8.132255455e-01 -4.137500052e-01 1.789623316e-01 3.264379060e-01
2.079798e+10 1.885405793e-01 3.297100222e-01 8.058846380e-01 -4.206381928e-01 8.058853092e-01 -4.206376831e-01 1.858504710e-01 3.309672627e-01
2.129293e+10 1.955804522e-01 3.339639558e-01 7.984910087e-01 -4.273421423e-01 7.984916957e-01 -4.273416427e-01 1.927797955e-01 3.353238779e-01
2.178788e+10 2.026559950e-01 3.380423412e-01 7.910495656e-01 -4.338638215e-01 7.910502680e-01 -4.338633332e-01 1.997450158e-01 3.395088031e-01
2.228283e+10 2.097619338e-01 3.419464582e-01 7.835657150e-01 -4.402048352e-01 7.835664320e-01 -4.402043595e-01 2.067409773e-01 3.435232802e-01
2.277778e+10 2.168931388e-01 3.456777686e-01 7.760447030e-01 -4.463669350e-01 7.760454339e-01 -4.463664732e-01 2.137626653e-01 3.473687293e-01
2.327273e+10 2.240446283e-01 3.492379030e-01 7.684916136e-01 -4.523520105e-01 7.684923577e-01 -4.523515639e-01 2.208052103e-01 3.510467365e-01
2.376768e+10 2.312115732e-01 3.526286495e-01 7.609113665e-01 -4.581620801e-01 7.609121229e-01 -4.581616498e-01 2.278638912e-01 3.545590419e-01
2.426263e+10 2.383893000e-01 3.558519412e-01 7.533087154e-01 -4.637992821e-01 7.533094834e-01 -4.637988694e-01 2.349341393e-01 3.579075285e-01
2.475758e+10 2.455732933e-01 3.589098457e-01 7.456882473e-01 -4.692658659e-01 7.456890260e-01 -4.692654719e-01 2.420115403e-01 3.610942107e-01
2.525253e+10 2.527591978e-01 3.618045533e-01 7.380543816e-01 -4.745641827e-01 7.380551700e-01 -4.745638087e-01 2.490918361e-01 3.641212232e-01
2.574747e+10 2.599428194e-01 3.645383666e-01 7.304113703e-01 -4.796966775e-01 7.304121675e-01 -4.796963244e-01 2.561709262e-01 3.669908113e-01
2.624242e+10 2.671201259e-01 3.671136903e-01 7.227632979e-01 -4.846658796e-01 7.227641030e-01 -4.846655486e-01 2.632448683e-01 3.697053198e-01
2.673737e+10 2.742872469e-01 3.695330210e-01 7.151140826e-01 -4.894743949e-01 7.151148946e-01 -4.894740871e-01 2.703098783e-01 3.722671843e-01
2.723232e+10 2.814404737e-01 3.717989378e-01 7.074674772e-01 -4.941248974e-01 7.074682950e-01 -4.941246138e-01 2.773623299e-01 3.746789207e-01
2.772727e+10 2.885762583e-01 3.739140928e-01 6.998270704e-01 -4.986201216e-01 6.998278930e-01 -4.986198632e-01 2.843987540e-01 3.769431170e-01
2.822222e+10 2.956912121e-01 3.758812028e-01 6.921962890e-01 -5.029628543e-01 6.921971153e-01 -5.029626222e-01 2.914158373e-01 3.790624245e-01
2.871717e+10 3.003728566e-01 3.796008521e-01 6.870294255e-01 -5.046663124e-01 6.870304088e-01 -5.046663407e-01 2.961968087e-01 3.827739908e-01
2.921212e+10 3.098458596e-01 3.793824265e-01 6.769765114e-01 -5.112022123e-01 6.769773417e-01 -5.112020355e-01 3.053794974e-01 3.828772441e-01
2.970707e+10 3.168795569e-01 3.809222216e-01 6.693935783e-01 -5.151046096e-01 6.693944090e-01 -5.151044618e-01 3.123202107e-01 3.845783022e-01
3.020202e+10 3.238804255e-01 3.823253199e-01 6.618324024e-01 -5.188660461e-01 6.618332322e-01 -5.188659282e-01 3.192298515e-01 3.861455484e-01
3.069697e+10 3.308458430e-01 3.835946413e-01 6.542956368e-01 -5.224894671e-01 6.542964645e-01 -5.224893798e-01 3.261058552e-01 3.875818337e-01
3.119192e+10 3.377733321e-01 3.847331255e-01 6.467857888e-01 -5.259778304e-01 6.467866132e-01 -5.259777748e-01 3.329457995e-01 3.888900282e-01
3.168687e+10 3.426818169e-01 3.883134926e-01 6.425705251e-01 -5.273098748e-01 6.425718126e-01 -5.273101210e-01 3.379360580e-01 3.923979315e-01
3.218182e+10 3.515053217e-01 3.866294030e-01 6.318561668e-01 -5.325612477e-01 6.318569809e-01 -5.325612574e-01 3.465085095e-01 3.911336865e-01
3.267677e+10 3.583055632e-01 3.873931201e-01 6.244407103e-01 -5.356622333e-01 6.244415174e-01 -5.356622768e-01 3.532271103e-01 3.920749347e-01
3.317172e+10 3.650593512e-01 3.880378377e-01 6.170608138e-01 -5.386400152e-01 6.170616126e-01 -5.386400932e-01 3.599013147e-01 3.928996510e-01
3.366667e+10 3.702014079e-01 3.914395183e-01 6.133391671e-01 -5.398766914e-01 6.133405917e-01 -5.398771184e-01 3.650996069e-01 3.961934194e-01
3.416162e+10 3.784204776e-01 3.889820734e-01 6.024149075e-01 -5.442377324e-01 6.024156857e-01 -5.442378815e-01 3.731096014e-01 3.942110104e-01
3.465657e+10 3.850245774e-01 3.892874572e-01 5.951521959e-01 -5.468635064e-01 5.951529618e-01 -5.468636919e-01 3.796405163e-01 3.947033817e-01
3.515152e+10 3.915757383e-01 3.894855649e-01 5.879316488e-01 -5.493777471e-01 5.879324011e-01 -5.493779696e-01 3.861206920e-01 3.950906698e-01
3.564646e+10 3.980726290e-01 3.895792783e-01 5.807546284e-01 -5.517833145e-01 5.807553657e-01 -5.517835747e-01 3.925488264e-01 3.953756892e-01
3.614141e+10 4.045140264e-01 3.895714523e-01 5.736223889e-01 -5.540830399e-01 5.736231100e-01 -5.540833381e-01 3.989237232e-01 3.955612280e-01
3.663636e+10 4.108988115e-01 3.894649128e-01 5.665360812e-01 -5.562797222e-01 5.665367847e-01 -5.562800590e-01 4.052442879e-01 3.956500461e-01
3.713131e+10 4.172259657e-01 3.892624532e-01 5.594967561e-01 -5.583761262e-01 5.594974405e-01 -5.583765021e-01 4.115095241e-01 3.956448716e-01
3.762626e+10 4.234945670e-01 3.889668325e-01 5.525053687e-01 -5.603749800e-01 5.525060327e-01 -5.603753956e-01 4.177185297e-01 3.955483991e-01
3.812121e+10 4.297037856e-01 3.885807728e-01 5.455627820e-01 -5.622789735e-01 5.455634242e-01 -5.622794290e-01 4.238704933e-01 3.953632871e-01
3.861616e+10 4.358528810e-01 3.881069577e-01 5.386697707e-01 -5.640907558e-01 5.386703897e-01 -5.640912517e-01 4.299646901e-01 3.950921565e-01
3.911111e+10 4.419411974e-01 3.875480300e-01 5.318270253e-01 -5.658129344e-01 5.318276197e-01 -5.658134710e-01 4.360004786e-01 3.947375885e-01
3.960606e+10 4.479681608e-01 3.869065907e-01 5.250351552e-01 -5.674480733e-01 5.250357237e-01 -5.674486510e-01 4.419772971e-01 3.943021233e-01
4.010101e+10 4.539332747e-01 3.861851973e-01 5.182946929e-01 -5.689986920e-01 5.182952340e-01 -5.689993112e-01 4.478946596e-01 3.937882587e-01
4.059596e+10 4.598361169e-01 3.853863628e-01 5.116060969e-01 -5.704672646e-01 5.116066093e-01 -5.704679255e-01 4.537521531e-01 3.931984489e-01
4.109091e+10 4.656763362e-01 3.845125546e-01 5.049697559e-01 -5.718562186e-01 5.049702381e-01 -5.718569214e-01 4.595494337e-01 3.925351037e-01
4.158586e+10 4.714536488e-01 3.835661936e-01 4.983859913e-01 -5.731679341e-01 4.983864419e-01 -5.731686792e-01 4.652862234e-01 3.918005875e-01
4.208081e+10 4.771678351e-01 3.825496537e-01 4.918550612e-01 -5.744047439e-01 4.918554789e-01 -5.744055314e-01 4.709623070e-01 3.909972185e-01
4.257576e+10 4.828187364e-01 3.814652610e-01 4.853771632e-01 -5.755689320e-01 4.853775465e-01 -5.755697622e-01 4.765775291e-01 3.901272687e-01
4.307071e+10 4.884062519e-01 3.803152937e-01 4.789524377e-01 -5.766627343e-01 4.789527852e-01 -5.766636073e-01 4.821317907e-01 3.891929626e-01
4.356566e+10 4.939303359e-01 3.791019814e-01 4.725809706e-01 -5.776883375e-01 4.725812809e-01 -5.776892535e-01 4.876250466e-01 3.881964778e-01
4.406061e+10 4.993909943e-01 3.778275051e-01 4.662627965e-01 -5.786478796e-01 4.662630682e-01 -5.786488388e-01 4.930573023e-01 3.871399442e-01
4.455556e+10 5.047882824e-01 3.764939973e-01 4.599979013e-01 -5.795434497e-01 4.599981330e-01 -5.795444521e-01 4.984286113e-01 3.860254443e-01
4.505051e+10 5.101223019e-01 3.751035417e-01 4.537862253e-01 -5.803770878e-01 4.537864155e-01 -5.803781336e-01 5.037390728e-01 3.848550129e-01
4.554545e+10 5.153931982e-01 3.736581735e-01 4.476276651e-01 -5.811507854e-01 4.476278125e-01 -5.811518746e-01 5.089888285e-01 3.836306374e-01
4.604040e+10 5.206011578e-01 3.721598795e-01 4.415220769e-01 -5.818664854e-01 4.415221801e-01 -5.818676181e-01 5.141780604e-01 3.823542578e-01
4.653535e+10 5.257464064e-01 3.706105982e-01 4.354692784e-01 -5.825260826e-01 4.354693360e-01 -5.825272588e-01 5.193069887e-01 3.810277674e-01
4.703030e+10 5.308292056e-01 3.690122207e-01 4.294690515e-01 -5.831314241e-01 4.294690621e-01 -5.831326439e-01 5.243758689e-01 3.796530123e-01
4.752525e+10 5.358498515e-01 3.673665903e-01 4.235211441e-01 -5.836843095e-01 4.235211064e-01 -5.836855728e-01 5.293849903e-01 3.782317927e-01
4.802020e+10 5.408086721e-01 3.656755037e-01 4.176252730e-01 -5.841864916e-01 4.176251854e-01 -5.841877985e-01 5.343346730e-01 3.767658628e-01
4.851515e+10 5.464863746e-01 3.638007769e-01 4.116781529e-01 -5.847276533e-01 4.116779161e-01 -5.847288808e-01 5.399699396e-01 3.750959943e-01
4.901010e+10 5.512267464e-01 3.618009675e-01 4.055205398e-01 -5.850251097e-01 4.055202585e-01 -5.850263931e-01 5.447265494e-01 3.733527572e-01
4.950505e+10 5.558908649e-01 3.597827310e-01 3.993984882e-01 -5.852368307e-01 3.993981543e-01 -5.852381674e-01 5.494114729e-01 3.715893715e-01
5.000000e+10 5.604762786e-01 3.577333294e-01 3.933112005e-01 -5.853771586e-01 3.933108083e-01 -5.853785458e-01 5.540229097e-01 3.697949258e-01
