! rapidmom parametric dataset (SG13G2 open stack, IHP)
! device = spiral
! family = spiral_N2
! stack = IHP SG13G2 (open PDK)
! Dout_um = 160
! width_um = 10
! spacing_um = 3
! sides = 8
! n_ports = 2
! n_dof = 4553
! cell_um = 3.333
! sweep = ROM (rational fit from adaptive anchor solves)
! rom_converged = False
! f_points = 100
! f_min_hz = 1.000e+09
! f_max_hz = 5.000e+10
! tool = rapidmom (2.5D MoM, A-EFIE)
! N = 2
# HZ S RI R 50
1.000000e+09 1.371154890e-02 5.760143250e-02 9.820328326e-01 -7.223833023e-02 9.820331654e-01 -7.223800464e-02 1.372742046e-02 5.759612129e-02
1.494949e+09 1.801794419e-02 8.127202124e-02 9.756684299e-01 -1.096207967e-01 9.756677947e-01 -1.096207223e-01 1.724171466e-02 8.161202000e-02
1.989899e+09 2.492632349e-02 1.117900747e-01 9.679724905e-01 -1.404769924e-01 9.679718629e-01 -1.404768975e-01 2.414244342e-02 1.122395967e-01
2.484848e+09 3.395558664e-02 1.407955515e-01 9.585341654e-01 -1.713318625e-01 9.585335474e-01 -1.713317473e-01 3.316161369e-02 1.413557303e-01
2.979798e+09 4.488678729e-02 1.684957566e-01 9.473363768e-01 -2.016552385e-01 9.473357700e-01 -2.016551040e-01 4.408035684e-02 1.691675692e-01
3.474747e+09 5.756128720e-02 1.949073963e-01 9.344554221e-01 -2.311398840e-01 9.344548284e-01 -2.311397311e-01 5.674004872e-02 1.956918365e-01
3.969697e+09 7.183063509e-02 2.199851640e-01 9.200049025e-01 -2.595766250e-01 9.200043233e-01 -2.595764552e-01 7.099223259e-02 2.208833138e-01
4.464646e+09 8.754495704e-02 2.436668024e-01 9.041178015e-01 -2.868117572e-01 9.041172381e-01 -2.868115718e-01 8.668702257e-02 2.446798689e-01
4.959596e+09 1.045510787e-01 2.658916298e-01 8.869382113e-01 -3.127297693e-01 8.869376649e-01 -3.127295699e-01 1.036712313e-01 2.670209682e-01
5.454545e+09 1.226936188e-01 2.866088391e-01 8.686161886e-01 -3.372451492e-01 8.686156603e-01 -3.372449374e-01 1.217894662e-01 2.878559687e-01
5.949495e+09 1.418170215e-01 3.057811945e-01 8.493039160e-01 -3.602977595e-01 8.493034065e-01 -3.602975370e-01 1.408861640e-01 3.071478114e-01
6.444444e+09 1.617677870e-01 3.233863818e-01 8.291525931e-01 -3.818496771e-01 8.291521032e-01 -3.818494457e-01 1.608078225e-01 3.248743695e-01
6.939394e+09 1.823965857e-01 3.394170405e-01 8.083098639e-01 -4.018826351e-01 8.083093940e-01 -4.018823965e-01 1.814051163e-01 3.410284792e-01
7.434343e+09 2.035601143e-01 3.538800128e-01 7.869177085e-01 -4.203957107e-01 7.869172589e-01 -4.203954667e-01 2.025347533e-01 3.556171873e-01
7.929293e+09 2.251226257e-01 3.667951184e-01 7.651107659e-01 -4.374031219e-01 7.651103367e-01 -4.374028743e-01 2.240610060e-01 3.686605251e-01
8.424242e+09 2.469571143e-01 3.781936566e-01 7.430150599e-01 -4.529320948e-01 7.430146511e-01 -4.529318452e-01 2.458568974e-01 3.801900097e-01
8.919192e+09 2.689461616e-01 3.881167734e-01 7.207470989e-01 -4.670208055e-01 7.207467104e-01 -4.670205556e-01 2.678050467e-01 3.902470104e-01
9.414141e+09 2.869323273e-01 3.974413409e-01 6.974887363e-01 -4.815082166e-01 6.974862423e-01 -4.815083165e-01 2.851303043e-01 3.981941395e-01
9.909091e+09 3.129690737e-01 4.037405818e-01 6.761097794e-01 -4.910732571e-01 6.761094305e-01 -4.910730111e-01 3.117394608e-01 4.061483129e-01
1.040404e+10 3.348194033e-01 4.095580062e-01 6.539222216e-01 -5.011510924e-01 6.539218919e-01 -5.011508506e-01 3.335423161e-01 4.121098138e-01
1.089899e+10 3.564570132e-01 4.141305016e-01 6.319261897e-01 -5.100136276e-01 6.319258784e-01 -5.100133914e-01 3.551304028e-01 4.168302542e-01
1.139394e+10 3.778152456e-01 4.175247907e-01 6.101874280e-01 -5.177271257e-01 6.101871346e-01 -5.177268963e-01 3.764371524e-01 4.203765959e-01
1.188889e+10 3.988367298e-01 4.198087513e-01 5.887623617e-01 -5.243592194e-01 5.887620854e-01 -5.243589980e-01 3.974052940e-01 4.228169579e-01
1.238384e+10 4.194727978e-01 4.210504408e-01 5.676986760e-01 -5.299778896e-01 5.676984160e-01 -5.299776773e-01 4.179862705e-01 4.242196395e-01
1.287879e+10 4.396828415e-01 4.213172719e-01 5.470359551e-01 -5.346506053e-01 5.470357106e-01 -5.346504031e-01 4.381395953e-01 4.246522961e-01
1.337374e+10 4.594336369e-01 4.206753325e-01 5.268063548e-01 -5.384436154e-01 5.268061249e-01 -5.384434243e-01 4.578321771e-01 4.241812588e-01
1.386869e+10 4.786986576e-01 4.191888382e-01 5.070352866e-01 -5.414213791e-01 5.070350704e-01 -5.414212000e-01 4.770376329e-01 4.228709866e-01
1.436364e+10 4.974573940e-01 4.169197057e-01 4.877420954e-01 -5.436461205e-01 4.877418919e-01 -5.436459541e-01 4.957356082e-01 4.207836392e-01
1.485859e+10 5.156946938e-01 4.139272326e-01 4.689407179e-01 -5.451774935e-01 4.689405262e-01 -5.451773405e-01 5.139111164e-01 4.179787569e-01
1.535354e+10 5.334001312e-01 4.102678700e-01 4.506403108e-01 -5.460723422e-01 4.506401298e-01 -5.460722032e-01 5.315539091e-01 4.145130328e-01
1.584848e+10 5.505674137e-01 4.059950750e-01 4.328458423e-01 -5.463845428e-01 4.328456711e-01 -5.463844184e-01 5.486578828e-01 4.104401652e-01
1.634343e+10 5.671938305e-01 4.011592311e-01 4.155586425e-01 -5.461649143e-01 4.155584800e-01 -5.461648048e-01 5.652205273e-01 4.058107775e-01
1.683838e+10 5.832797445e-01 3.958076231e-01 3.987769092e-01 -5.454611860e-01 3.987767545e-01 -5.454610920e-01 5.812424180e-01 4.006723931e-01
1.733333e+10 5.949551998e-01 3.943737165e-01 3.803663113e-01 -5.506249963e-01 3.803666079e-01 -5.506252395e-01 5.912621588e-01 3.987245468e-01
1.782828e+10 6.138441499e-01 3.837309247e-01 3.667096991e-01 -5.427770201e-01 3.667095570e-01 -5.427769581e-01 6.116789363e-01 3.890433902e-01
1.832323e+10 6.283347879e-01 3.770852743e-01 3.514088924e-01 -5.408768947e-01 3.514087551e-01 -5.408768490e-01 6.261061981e-01 3.826326796e-01
1.881818e+10 6.423085055e-01 3.700829319e-01 3.365836004e-01 -5.386534743e-01 3.365834669e-01 -5.386534452e-01 6.400172645e-01 3.758729799e-01
1.931313e+10 6.557749494e-01 3.627566165e-01 3.222224238e-01 -5.361398707e-01 3.222222932e-01 -5.361398583e-01 6.534220593e-01 3.687972373e-01
1.980808e+10 6.687446898e-01 3.551364738e-01 3.083129732e-01 -5.333665956e-01 3.083128445e-01 -5.333666000e-01 6.663314437e-01 3.614358221e-01
2.030303e+10 6.812289921e-01 3.472502161e-01 2.948420959e-01 -5.303616954e-01 2.948419681e-01 -5.303617166e-01 6.787569885e-01 3.538166670e-01
2.079798e+10 6.932396188e-01 3.391232647e-01 2.817960733e-01 -5.271508885e-01 2.817959456e-01 -5.271509266e-01 6.907107762e-01 3.459654099e-01
2.129293e+10 7.047886577e-01 3.307788927e-01 2.691607912e-01 -5.237577039e-01 2.691606626e-01 -5.237577587e-01 7.022052301e-01 3.379055358e-01
2.178788e+10 7.158883748e-01 3.222383676e-01 2.569218862e-01 -5.202036173e-01 2.569217558e-01 -5.202036889e-01 7.132529673e-01 3.296585187e-01
2.228283e+10 7.265510887e-01 3.135210894e-01 2.450648703e-01 -5.165081854e-01 2.450647372e-01 -5.165082737e-01 7.238666736e-01 3.212439593e-01
2.277778e+10 7.367890640e-01 3.046447250e-01 2.335752370e-01 -5.126891746e-01 2.335751004e-01 -5.126892793e-01 7.340589975e-01 3.126797188e-01
2.327273e+10 7.466144217e-01 2.956253382e-01 2.224385500e-01 -5.087626850e-01 2.224384089e-01 -5.087628061e-01 7.438424611e-01 3.039820477e-01
2.376768e+10 7.560390646e-01 2.864775126e-01 2.116405175e-01 -5.047432689e-01 2.116403712e-01 -5.047434061e-01 7.532293857e-01 2.951657085e-01
2.426263e+10 7.650746154e-01 2.772144697e-01 2.011670541e-01 -5.006440425e-01 2.011669017e-01 -5.006441955e-01 7.622318305e-01 2.862440923e-01
2.475758e+10 7.737323664e-01 2.678481800e-01 1.910043306e-01 -4.964767908e-01 1.910041713e-01 -4.964769595e-01 7.708615431e-01 2.772293294e-01
2.525253e+10 7.820232390e-01 2.583894683e-01 1.811388153e-01 -4.922520674e-01 1.811386483e-01 -4.922522515e-01 7.791299186e-01 2.681323932e-01
2.574747e+10 7.899577515e-01 2.488481121e-01 1.715573061e-01 -4.879792864e-01 1.715571306e-01 -4.879794854e-01 7.870479687e-01 2.589631978e-01
2.624242e+10 7.975459944e-01 2.392329347e-01 1.622469563e-01 -4.836668083e-01 1.622467714e-01 -4.836670219e-01 7.946262967e-01 2.497306896e-01
2.673737e+10 8.047976119e-01 2.295518916e-01 1.531952938e-01 -4.793220206e-01 1.531950990e-01 -4.793222485e-01 8.018750797e-01 2.404429328e-01
2.723232e+10 8.117217888e-01 2.198121523e-01 1.443902362e-01 -4.749514116e-01 1.443900305e-01 -4.749516534e-01 8.088040557e-01 2.311071891e-01
2.772727e+10 8.183272423e-01 2.100201753e-01 1.358201004e-01 -4.705606389e-01 1.358198833e-01 -4.705608941e-01 8.154225154e-01 2.217299922e-01
2.822222e+10 8.246222168e-01 2.001817798e-01 1.274736101e-01 -4.661545929e-01 1.274733807e-01 -4.661548610e-01 8.217392975e-01 2.123172171e-01
2.871717e+10 8.306144829e-01 1.903022111e-01 1.193398993e-01 -4.617374547e-01 1.193396571e-01 -4.617377354e-01 8.277627878e-01 2.028741442e-01
2.921212e+10 8.363113390e-01 1.803862024e-01 1.114085145e-01 -4.573127506e-01 1.114082587e-01 -4.573130431e-01 8.335009203e-01 1.934055195e-01
2.970707e+10 8.417196148e-01 1.704380327e-01 1.036694143e-01 -4.528834004e-01 1.036691443e-01 -4.528837044e-01 8.389611811e-01 1.839156103e-01
3.020202e+10 8.468456773e-01 1.604615803e-01 9.611296810e-02 -4.484517639e-01 9.611268322e-02 -4.484520788e-01 8.441506141e-01 1.744082568e-01
3.069697e+10 8.516954380e-01 1.504603729e-01 8.872995340e-02 -4.440196820e-01 8.872965302e-02 -4.440200071e-01 8.490758280e-01 1.648869205e-01
3.119192e+10 8.562743622e-01 1.404376348e-01 8.151155279e-02 -4.395885153e-01 8.151123630e-02 -4.395888501e-01 8.537430048e-01 1.553547290e-01
3.168687e+10 8.605874787e-01 1.303963313e-01 7.444935006e-02 -4.351591795e-01 7.444901688e-02 -4.351595233e-01 8.581579093e-01 1.458145180e-01
3.218182e+10 8.646393911e-01 1.203392094e-01 6.753532625e-02 -4.307321779e-01 6.753497582e-02 -4.307325300e-01 8.623258992e-01 1.362688701e-01
3.267677e+10 8.684342898e-01 1.102688373e-01 6.076185559e-02 -4.263076316e-01 6.076148735e-02 -4.263079913e-01 8.662519368e-01 1.267201519e-01
3.317172e+10 8.719759647e-01 1.001876407e-01 5.412170147e-02 -4.218853073e-01 5.412131491e-02 -4.218856739e-01 8.699405999e-01 1.171705472e-01
3.366667e+10 8.752358823e-01 9.170963862e-02 4.463249478e-02 -4.186979956e-01 4.463204035e-02 -4.186983452e-01 8.731494844e-01 1.095020168e-01
3.416162e+10 8.783128820e-01 8.000197018e-02 4.121431986e-02 -4.130447737e-01 4.121389517e-02 -4.130451520e-01 8.766222675e-01 9.807669429e-02
3.465657e+10 8.811138268e-01 6.990193741e-02 3.493453242e-02 -4.086245510e-01 3.493408797e-02 -4.086249338e-01 8.796226188e-01 8.853618202e-02
3.515152e+10 8.836729824e-01 5.980002265e-02 2.876293581e-02 -4.042025674e-01 2.876247117e-02 -4.042029540e-01 8.824003157e-01 7.900231037e-02
3.564646e+10 8.859923515e-01 4.969842240e-02 2.269418926e-02 -3.997771756e-01 2.269370404e-02 -3.997775652e-01 8.849582058e-01 6.947679674e-02
3.614141e+10 8.880736267e-01 3.959937266e-02 1.672332409e-02 -3.953465079e-01 1.672281791e-02 -3.953468995e-01 8.872988313e-01 5.996134269e-02
3.663636e+10 8.899182075e-01 2.950517411e-02 1.084574236e-02 -3.909084950e-01 1.084521490e-02 -3.909088877e-01 8.894244430e-01 5.045765666e-02
3.713131e+10 8.915272183e-01 1.941821620e-02 5.057216132e-03 -3.864608846e-01 5.056667079e-03 -3.864612776e-01 8.913370149e-01 4.096747552e-02
3.762626e+10 8.929015268e-01 9.340999932e-03 -6.461129672e-04 -3.820012596e-01 -6.466838828e-04 -3.820016518e-01 8.930382594e-01 3.149258503e-02
3.812121e+10 8.939520246e-01 -7.408298997e-04 -6.160324840e-03 -3.776782707e-01 -6.160865144e-03 -3.776786480e-01 8.944590346e-01 2.207766065e-02
3.861616e+10 8.949483409e-01 -1.077351619e-02 -1.181076485e-02 -3.730355779e-01 -1.181138015e-02 -3.730359657e-01 8.958123985e-01 1.259617968e-02
3.911111e+10 8.954943358e-01 -2.110211448e-02 -1.648458115e-02 -3.686431193e-01 -1.648516028e-02 -3.686435155e-01 8.967984281e-01 2.881589894e-03
3.960606e+10 8.959112788e-01 -3.125095028e-02 -2.156302123e-02 -3.641228138e-01 -2.156362449e-02 -3.641232165e-01 8.976490246e-01 -6.675100788e-03
4.010101e+10 8.960937632e-01 -4.137107324e-02 -2.658944972e-02 -3.595964416e-01 -2.659007918e-02 -3.595968477e-01 8.982902397e-01 -1.619888769e-02
4.059596e+10 8.962399040e-01 -5.075835686e-02 -3.324638499e-02 -3.548395606e-01 -3.324709060e-02 -3.548399273e-01 8.988747009e-01 -2.492476373e-02
4.109091e+10 8.957584142e-01 -6.151330269e-02 -3.650636594e-02 -3.505117636e-01 -3.650705113e-02 -3.505121675e-01 8.989493947e-01 -3.513880910e-02
4.158586e+10 8.954821407e-01 -7.057288447e-02 -4.354644126e-02 -3.455614726e-01 -4.354719208e-02 -3.455618222e-01 8.991720467e-01 -4.351102549e-02
4.208081e+10 8.947510090e-01 -8.042158693e-02 -4.859545577e-02 -3.408666925e-01 -4.859622903e-02 -3.408670319e-01 8.990131433e-01 -5.275092190e-02
4.257576e+10 8.937843866e-01 -9.022517489e-02 -5.357743801e-02 -3.361306924e-01 -5.357823353e-02 -3.361310205e-01 8.986492417e-01 -6.195112719e-02
4.307071e+10 8.925817781e-01 -9.997873884e-02 -5.849215703e-02 -3.313504846e-01 -5.849297459e-02 -3.313508003e-01 8.980802964e-01 -7.110822418e-02
4.356566e+10 8.911427215e-01 -1.096770769e-01 -6.333901431e-02 -3.265231574e-01 -6.333985361e-02 -3.265234595e-01 8.973062205e-01 -8.021857128e-02
4.406061e+10 8.892275943e-01 -1.207467816e-01 -6.544441049e-02 -3.226191760e-01 -6.544525891e-02 -3.226195106e-01 8.959946954e-01 -9.070593370e-02
4.455556e+10 8.875537677e-01 -1.288857762e-01 -7.282493756e-02 -3.167160243e-01 -7.282581925e-02 -3.167162958e-01 8.951422591e-01 -9.828327923e-02
4.505051e+10 8.854033924e-01 -1.383842349e-01 -7.746101277e-02 -3.117309978e-01 -7.746191498e-02 -3.117312525e-01 8.937522025e-01 -1.072291671e-01
4.554545e+10 8.830156782e-01 -1.478036630e-01 -8.202326088e-02 -3.066884633e-01 -8.202418308e-02 -3.066886999e-01 8.921567230e-01 -1.161113494e-01
4.604040e+10 8.803908041e-01 -1.571373614e-01 -8.650933856e-02 -3.015862686e-01 -8.651028017e-02 -3.015864859e-01 8.903558866e-01 -1.249249660e-01
4.653535e+10 8.775291769e-01 -1.663783408e-01 -9.091658497e-02 -2.964224930e-01 -9.091754533e-02 -2.964226901e-01 8.883498679e-01 -1.336649042e-01
4.703030e+10 8.744314652e-01 -1.755193315e-01 -9.524203734e-02 -2.911954745e-01 -9.524301573e-02 -2.911956502e-01 8.861389772e-01 -1.423257998e-01
4.752525e+10 8.710986341e-01 -1.845527955e-01 -9.948244910e-02 -2.859038359e-01 -9.948344474e-02 -2.859039892e-01 8.837236891e-01 -1.509020410e-01
4.802020e+10 8.676387418e-01 -1.940982077e-01 -1.029666845e-01 -2.811109889e-01 -1.029677104e-01 -2.811111191e-01 8.810600535e-01 -1.597751040e-01
4.851515e+10 8.639992973e-01 -2.025875288e-01 -1.075368227e-01 -2.753457101e-01 -1.075378652e-01 -2.753458062e-01 8.784006760e-01 -1.678200597e-01
4.901010e+10 8.601169326e-01 -2.109646306e-01 -1.121095155e-01 -2.694806722e-01 -1.121105733e-01 -2.694807331e-01 8.755455940e-01 -1.757709324e-01
4.950505e+10 8.561330356e-01 -2.190737194e-01 -1.165717756e-01 -2.633806657e-01 -1.165728462e-01 -2.633806891e-01 8.725960409e-01 -1.834893189e-01
5.000000e+10 8.520014290e-01 -2.269754369e-01 -1.209601629e-01 -2.570963595e-01 -1.209612440e-01 -2.570963435e-01 8.695205265e-01 -1.910328550e-01
