! rapidmom parametric dataset (SG13G2 open stack, IHP)
! device = spiral
! family = spiral_N2
! stack = IHP SG13G2 (open PDK)
! Dout_um = 120
! width_um = 10
! spacing_um = 3
! sides = 8
! n_ports = 2
! n_dof = 3588
! cell_um = 3.0
! sweep = ROM (rational fit from adaptive anchor solves)
! rom_converged = True
! f_points = 100
! f_min_hz = 1.000e+09
! f_max_hz = 5.000e+10
! tool = rapidmom (2.5D MoM, A-EFIE)
! N = 2
# HZ S RI R 50
1.000000e+09 8.879745653e-03 3.650524577e-02 9.882537143e-01 -4.711616494e-02 9.882532199e-01 -4.711604934e-02 8.886056788e-03 3.650915496e-02
1.494949e+09 1.458344861e-02 5.620594022e-02 9.889589965e-01 -6.814655023e-02 9.889595630e-01 -6.814441095e-02 1.460756358e-02 5.614784547e-02
1.989899e+09 1.669110082e-02 7.314246403e-02 9.843807407e-01 -9.135235187e-02 9.843820204e-01 -9.135006501e-02 1.667047823e-02 7.308132283e-02
2.484848e+09 1.958989935e-02 9.055049303e-02 9.790270672e-01 -1.134782684e-01 9.790289735e-01 -1.134760444e-01 1.951927037e-02 9.049355194e-02
2.979798e+09 2.338471148e-02 1.081019100e-01 9.730709084e-01 -1.348361901e-01 9.730733225e-01 -1.348341605e-01 2.325977186e-02 1.080548923e-01
3.474747e+09 2.808410902e-02 1.255909248e-01 9.665625854e-01 -1.556015885e-01 9.665653895e-01 -1.555998256e-01 2.790071529e-02 1.255584992e-01
3.969697e+09 3.365851861e-02 1.428791192e-01 9.595067484e-01 -1.758670456e-01 9.595098389e-01 -1.758655823e-01 3.341237795e-02 1.428653959e-01
4.464646e+09 4.006426044e-02 1.598691442e-01 9.518963625e-01 -1.956737135e-01 9.518996533e-01 -1.956725589e-01 3.975088047e-02 1.598780398e-01
4.959596e+09 4.725355504e-02 1.764894693e-01 9.437266168e-01 -2.150321402e-01 9.437300379e-01 -2.150312893e-01 4.686830014e-02 1.765249374e-01
5.454545e+09 5.517832369e-02 1.926852415e-01 9.349995304e-01 -2.339356381e-01 9.350030252e-01 -2.339350786e-01 5.471650111e-02 1.927514028e-01
5.949495e+09 6.379137518e-02 2.084128387e-01 9.257246153e-01 -2.523685529e-01 9.257281382e-01 -2.523682682e-01 6.324831949e-02 2.085140475e-01
6.444444e+09 7.304659863e-02 2.236366492e-01 9.159180775e-01 -2.703112593e-01 9.159215913e-01 -2.703112308e-01 7.241774369e-02 2.237775198e-01
6.939394e+09 8.289885020e-02 2.383271636e-01 9.056016124e-01 -2.877431412e-01 9.056050868e-01 -2.877433495e-01 8.217978699e-02 2.385125743e-01
7.434343e+09 9.330380260e-02 2.524598309e-01 8.948012069e-01 -3.046443515e-01 8.948046170e-01 -3.046447770e-01 9.249032410e-02 2.526949138e-01
7.929293e+09 1.042178463e-01 2.660143513e-01 8.835460806e-01 -3.209968362e-01 8.835494060e-01 -3.209974597e-01 1.033059815e-01 2.663044750e-01
8.424242e+09 1.155980592e-01 2.789742178e-01 8.718677917e-01 -3.367849093e-01 8.718710154e-01 -3.367857117e-01 1.145840985e-01 2.793249660e-01
8.919192e+09 1.274022366e-01 2.913263948e-01 8.597994928e-01 -3.519955509e-01 8.598026010e-01 -3.519965141e-01 1.262827495e-01 2.917435430e-01
9.414141e+09 1.410794557e-01 3.041573621e-01 8.484362873e-01 -3.663026210e-01 8.484407237e-01 -3.663027711e-01 1.398294123e-01 3.044984826e-01
9.909091e+09 1.521177175e-01 3.141714476e-01 8.346298552e-01 -3.806464235e-01 8.346327007e-01 -3.806476554e-01 1.507780609e-01 3.147393702e-01
1.040404e+10 1.649489814e-01 3.246535485e-01 8.215977516e-01 -3.940745385e-01 8.216004538e-01 -3.940758796e-01 1.634952843e-01 3.253061114e-01
1.089899e+10 1.780443659e-01 3.345060308e-01 8.083133273e-01 -4.069008169e-01 8.083158805e-01 -4.069022514e-01 1.764743963e-01 3.352495428e-01
1.139394e+10 1.913667244e-01 3.437300000e-01 7.948102958e-01 -4.191256842e-01 7.948126958e-01 -4.191271966e-01 1.896785526e-01 3.445708495e-01
1.188889e+10 2.048802615e-01 3.523288230e-01 7.811215163e-01 -4.307518850e-01 7.811237602e-01 -4.307534608e-01 2.030722560e-01 3.532734591e-01
1.238384e+10 2.185506274e-01 3.603079399e-01 7.672787935e-01 -4.417843049e-01 7.672808795e-01 -4.417859301e-01 2.166214500e-01 3.613628546e-01
1.287879e+10 2.323449987e-01 3.676746750e-01 7.533127148e-01 -4.522297833e-01 7.533146422e-01 -4.522314443e-01 2.302935972e-01 3.688463880e-01
1.337374e+10 2.462321428e-01 3.744380496e-01 7.392525229e-01 -4.620969235e-01 7.392542920e-01 -4.620986077e-01 2.440577435e-01 3.757330938e-01
1.386869e+10 2.601824662e-01 3.806085964e-01 7.251260168e-01 -4.713959036e-01 7.251276285e-01 -4.713975988e-01 2.578845651e-01 3.820335054e-01
1.436364e+10 2.741680464e-01 3.861981789e-01 7.109594801e-01 -4.801382894e-01 7.109609364e-01 -4.801399839e-01 2.717464002e-01 3.877594758e-01
1.485859e+10 2.881626486e-01 3.912198162e-01 6.967776327e-01 -4.883368531e-01 6.967789361e-01 -4.883385361e-01 2.856172654e-01 3.929240040e-01
1.535354e+10 3.021417280e-01 3.956875146e-01 6.826036030e-01 -4.960053994e-01 6.826047566e-01 -4.960070605e-01 2.994728576e-01 3.975410680e-01
1.584848e+10 3.160824191e-01 3.996161077e-01 6.684589180e-01 -5.031585990e-01 6.684599256e-01 -5.031602287e-01 3.132905436e-01 4.016254662e-01
1.634343e+10 3.299635125e-01 4.030211055e-01 6.543635093e-01 -5.098118320e-01 6.543643752e-01 -5.098134212e-01 3.270493367e-01 4.051926674e-01
1.683838e+10 3.437654221e-01 4.059185524e-01 6.403357327e-01 -5.159810413e-01 6.403364615e-01 -5.159825815e-01 3.407298644e-01 4.082586707e-01
1.733333e+10 3.576134266e-01 4.076411780e-01 6.275692879e-01 -5.221484096e-01 6.275692825e-01 -5.221497546e-01 3.543161426e-01 4.100389143e-01
1.782828e+10 3.710611979e-01 4.102568673e-01 6.125488136e-01 -5.269331648e-01 6.125492837e-01 -5.269345845e-01 3.677864430e-01 4.129529585e-01
1.832323e+10 3.845235892e-01 4.117313672e-01 5.988188266e-01 -5.317496038e-01 5.988191757e-01 -5.317509530e-01 3.811314040e-01 4.146147700e-01
1.881818e+10 3.978437288e-01 4.127653691e-01 5.852148852e-01 -5.361488487e-01 5.852151194e-01 -5.361501215e-01 3.943358032e-01 4.158422279e-01
1.931313e+10 4.110093779e-01 4.133758269e-01 5.717480947e-01 -5.401478228e-01 5.717482201e-01 -5.401490138e-01 4.073875763e-01 4.166522316e-01
1.980808e+10 4.240095775e-01 4.135795950e-01 5.584282806e-01 -5.437633522e-01 5.584283037e-01 -5.437644566e-01 4.202759328e-01 4.170615812e-01
2.030303e+10 4.368345792e-01 4.133933571e-01 5.452640548e-01 -5.470120915e-01 5.452639819e-01 -5.470131050e-01 4.329912877e-01 4.170869067e-01
2.079798e+10 4.494757741e-01 4.128335642e-01 5.322628821e-01 -5.499104581e-01 5.322627198e-01 -5.499113772e-01 4.455251905e-01 4.167446068e-01
2.129293e+10 4.619256226e-01 4.119163808e-01 5.194311482e-01 -5.524745755e-01 5.194309033e-01 -5.524753970e-01 4.578702558e-01 4.160507947e-01
2.178788e+10 4.741775831e-01 4.106576387e-01 5.067742277e-01 -5.547202241e-01 5.067739068e-01 -5.547209454e-01 4.700200935e-01 4.150212533e-01
2.228283e+10 4.862260438e-01 4.090727991e-01 4.942965506e-01 -5.566627999e-01 4.942961602e-01 -5.566634190e-01 4.819692398e-01 4.136713959e-01
2.277778e+10 4.980662539e-01 4.071769202e-01 4.820016682e-01 -5.583172793e-01 4.820012152e-01 -5.583177946e-01 4.937130904e-01 4.120162354e-01
2.327273e+10 5.096942585e-01 4.049846317e-01 4.698923176e-01 -5.596981908e-01 4.698918086e-01 -5.596986014e-01 5.052478353e-01 4.100703581e-01
2.376768e+10 5.211068345e-01 4.025101152e-01 4.579704840e-01 -5.608195923e-01 4.579699254e-01 -5.608198975e-01 5.165703957e-01 4.078479042e-01
2.426263e+10 5.323014297e-01 3.997670891e-01 4.462374601e-01 -5.616950528e-01 4.462368585e-01 -5.616952526e-01 5.276783634e-01 4.053625522e-01
2.475758e+10 5.432761040e-01 3.967687981e-01 4.346939046e-01 -5.623376394e-01 4.346932662e-01 -5.623377341e-01 5.385699431e-01 4.026275093e-01
2.525253e+10 5.540294740e-01 3.935280076e-01 4.233398965e-01 -5.627599084e-01 4.233392275e-01 -5.627598988e-01 5.492438969e-01 3.996555045e-01
2.574747e+10 5.645606600e-01 3.900570007e-01 4.121749878e-01 -5.629738994e-01 4.121742943e-01 -5.629737868e-01 5.596994923e-01 3.964587861e-01
2.624242e+10 5.748692360e-01 3.863675793e-01 4.011982535e-01 -5.629911332e-01 4.011975412e-01 -5.629909192e-01 5.699364527e-01 3.930491220e-01
2.673737e+10 5.849551826e-01 3.824710675e-01 3.904083380e-01 -5.628226123e-01 3.904076126e-01 -5.628222990e-01 5.799549107e-01 3.894378033e-01
2.723232e+10 5.948188431e-01 3.783783175e-01 3.798034997e-01 -5.624788239e-01 3.798027667e-01 -5.624784136e-01 5.897553647e-01 3.856356493e-01
2.772727e+10 6.044608823e-01 3.740997177e-01 3.693816529e-01 -5.619697444e-01 3.693809173e-01 -5.619692399e-01 5.993386376e-01 3.816530160e-01
2.822222e+10 6.138822476e-01 3.696452030e-01 3.591404063e-01 -5.613048467e-01 3.591396731e-01 -5.613042512e-01 6.087058394e-01 3.774998050e-01
2.871717e+10 6.230841336e-01 3.650242659e-01 3.490771001e-01 -5.604931082e-01 3.490763740e-01 -5.604924250e-01 6.178583311e-01 3.731854747e-01
2.921212e+10 6.320679489e-01 3.602459692e-01 3.391888400e-01 -5.595430201e-01 3.391881254e-01 -5.595422532e-01 6.267976924e-01 3.687190525e-01
2.970707e+10 6.408352854e-01 3.553189601e-01 3.294725292e-01 -5.584625984e-01 3.294718301e-01 -5.584617517e-01 6.355256910e-01 3.641091482e-01
3.020202e+10 6.493878901e-01 3.502514845e-01 3.199248977e-01 -5.572593948e-01 3.199242179e-01 -5.572584727e-01 6.440442549e-01 3.593639681e-01
3.069697e+10 6.577276393e-01 3.450514024e-01 3.105425306e-01 -5.559405087e-01 3.105418736e-01 -5.559395157e-01 6.523554468e-01 3.544913292e-01
3.119192e+10 6.658565151e-01 3.397262040e-01 3.013218935e-01 -5.545125999e-01 3.013212624e-01 -5.545115410e-01 6.604614401e-01 3.494986751e-01
3.168687e+10 6.737765833e-01 3.342830253e-01 2.922593563e-01 -5.529819015e-01 2.922587538e-01 -5.529807818e-01 6.683644980e-01 3.443930912e-01
3.218182e+10 6.814899743e-01 3.287286649e-01 2.833512157e-01 -5.513542327e-01 2.833506442e-01 -5.513530574e-01 6.760669538e-01 3.391813205e-01
3.267677e+10 6.889988650e-01 3.230696005e-01 2.745937155e-01 -5.496350123e-01 2.745931771e-01 -5.496337871e-01 6.835711929e-01 3.338697792e-01
3.317172e+10 6.963054631e-01 3.173120052e-01 2.659830660e-01 -5.478292723e-01 2.659825623e-01 -5.478280027e-01 6.908796372e-01 3.284645732e-01
3.366667e+10 7.026784312e-01 3.120914230e-01 2.569671788e-01 -5.463303215e-01 2.569661271e-01 -5.463290313e-01 6.973199582e-01 3.236338592e-01
3.416162e+10 7.103206810e-01 3.055244917e-01 2.491870982e-01 -5.439765055e-01 2.491866675e-01 -5.439751649e-01 7.049189261e-01 3.173961307e-01
3.465657e+10 7.170337485e-01 2.995055458e-01 2.409941868e-01 -5.419377275e-01 2.409937935e-01 -5.419363605e-01 7.116546742e-01 3.117436940e-01
3.515152e+10 7.235533974e-01 2.934100459e-01 2.329329696e-01 -5.398289538e-01 2.329326137e-01 -5.398275666e-01 7.182044132e-01 3.060192223e-01
3.564646e+10 7.298818042e-01 2.872428878e-01 2.249997324e-01 -5.376534809e-01 2.249994135e-01 -5.376520798e-01 7.245705602e-01 3.002275020e-01
3.614141e+10 7.360211118e-01 2.810087588e-01 2.171908176e-01 -5.354142976e-01 2.171905349e-01 -5.354128888e-01 7.307555033e-01 2.943731000e-01
3.663636e+10 7.419734235e-01 2.747121535e-01 2.095026353e-01 -5.331140975e-01 2.095023876e-01 -5.331126875e-01 7.367615949e-01 2.884603793e-01
3.713131e+10 7.477407981e-01 2.683573877e-01 2.019316747e-01 -5.307552924e-01 2.019314603e-01 -5.307538876e-01 7.425911465e-01 2.824935119e-01
3.762626e+10 7.533252455e-01 2.619486133e-01 1.944745141e-01 -5.283400244e-01 1.944743308e-01 -5.283386311e-01 7.482464241e-01 2.764764928e-01
3.812121e+10 7.587287236e-01 2.554898316e-01 1.871278304e-01 -5.258701783e-01 1.871276757e-01 -5.258688030e-01 7.537296440e-01 2.704131534e-01
3.861616e+10 7.639531365e-01 2.489849073e-01 1.798884083e-01 -5.233473945e-01 1.798882791e-01 -5.233460433e-01 7.590429703e-01 2.643071733e-01
3.911111e+10 7.690003328e-01 2.424375809e-01 1.727531486e-01 -5.207730806e-01 1.727530414e-01 -5.207717598e-01 7.641885130e-01 2.581620936e-01
3.960606e+10 7.738721051e-01 2.358514815e-01 1.657190763e-01 -5.181484244e-01 1.657189871e-01 -5.181471402e-01 7.691683260e-01 2.519813281e-01
4.010101e+10 7.785701904e-01 2.292301387e-01 1.587833477e-01 -5.154744057e-01 1.587832720e-01 -5.154731639e-01 7.739844073e-01 2.457681747e-01
4.059596e+10 7.830962710e-01 2.225769941e-01 1.519432577e-01 -5.127518087e-01 1.519431907e-01 -5.127506152e-01 7.786386981e-01 2.395258264e-01
4.109091e+10 7.874519762e-01 2.158954122e-01 1.451962464e-01 -5.099812340e-01 1.451961828e-01 -5.099800945e-01 7.831330841e-01 2.332573820e-01
4.158586e+10 7.917085466e-01 2.091468694e-01 1.387987442e-01 -5.065886125e-01 1.387994120e-01 -5.065871145e-01 7.876007649e-01 2.268820548e-01
4.208081e+10 7.956585260e-01 2.024600713e-01 1.319719807e-01 -5.042977125e-01 1.319719058e-01 -5.042966968e-01 7.916494131e-01 2.206541859e-01
4.257576e+10 7.995123875e-01 1.957127473e-01 1.254903838e-01 -5.013851616e-01 1.254902934e-01 -5.013842153e-01 7.956748616e-01 2.143252464e-01
4.307071e+10 8.032019143e-01 1.889498740e-01 1.190931903e-01 -4.984254503e-01 1.190930773e-01 -4.984245781e-01 7.995474212e-01 2.079818525e-01
4.356566e+10 8.067285165e-01 1.821745761e-01 1.127786474e-01 -4.954184494e-01 1.127785042e-01 -4.954176555e-01 8.032687263e-01 2.016267703e-01
4.406061e+10 8.100935729e-01 1.753899554e-01 1.065451766e-01 -4.923639214e-01 1.065449953e-01 -4.923632097e-01 8.068403698e-01 1.952627237e-01
4.455556e+10 8.132984370e-01 1.685990979e-01 1.003913774e-01 -4.892615341e-01 1.003911495e-01 -4.892609082e-01 8.102639073e-01 1.888924018e-01
4.505051e+10 8.163444424e-01 1.618050799e-01 9.431602930e-02 -4.861108737e-01 9.431574623e-02 -4.861103366e-01 8.135408606e-01 1.825184652e-01
4.554545e+10 8.192329093e-01 1.550109739e-01 8.831809446e-02 -4.829114577e-01 8.831774702e-02 -4.829110123e-01 8.166727232e-01 1.761435519e-01
4.604040e+10 8.219651507e-01 1.482198535e-01 8.239671861e-02 -4.796627491e-01 8.239629734e-02 -4.796623975e-01 8.196609644e-01 1.697702827e-01
4.653535e+10 8.246909024e-01 1.410459340e-01 7.699974248e-02 -4.762906491e-01 7.699883572e-02 -4.762909364e-01 8.226327915e-01 1.630107254e-01
4.703030e+10 8.270819203e-01 1.343171464e-01 7.114952902e-02 -4.729985255e-01 7.114859276e-02 -4.729987673e-01 8.253084070e-01 1.566971519e-01
4.752525e+10 8.292376915e-01 1.278952455e-01 6.508616869e-02 -4.696149593e-01 6.508546609e-02 -4.696148973e-01 8.277784049e-01 1.506863915e-01
4.802020e+10 8.313582632e-01 1.211469639e-01 5.946617097e-02 -4.661630896e-01 5.946535373e-02 -4.661631250e-01 8.302065609e-01 1.443457258e-01
4.851515e+10 8.333293140e-01 1.144171809e-01 5.392121633e-02 -4.626588980e-01 5.392027366e-02 -4.626590304e-01 8.324982712e-01 1.380197046e-01
4.901010e+10 8.351522642e-01 1.077090436e-01 4.845154158e-02 -4.591018067e-01 4.845046249e-02 -4.591020350e-01 8.346549767e-01 1.317109297e-01
4.950505e+10 8.368285782e-01 1.010257159e-01 4.305755590e-02 -4.554912795e-01 4.305632925e-02 -4.554916019e-01 8.366781341e-01 1.254220087e-01
5.000000e+10 8.382501768e-01 9.480192889e-02 3.707643391e-02 -4.519770958e-01 3.707540154e-02 -4.519770272e-01 8.384684923e-01 1.195989302e-01
