! rapidmom parametric dataset (SG13G2 open stack, IHP)
! device = spiral
! family = spiral_N2
! stack = IHP SG13G2 (open PDK)
! Dout_um = 140
! width_um = 10
! spacing_um = 3
! sides = 8
! n_ports = 2
! n_dof = 3916
! cell_um = 3.333
! sweep = ROM (rational fit from adaptive anchor solves)
! rom_converged = False
! f_points = 100
! f_min_hz = 1.000e+09
! f_max_hz = 5.000e+10
! tool = rapidmom (2.5D MoM, A-EFIE)
! N = 2
# HZ S RI R 50
1.000000e+09 1.121792319e-02 4.749767971e-02 9.852403488e-01 -6.013910660e-02 9.852395673e-01 -6.013821305e-02 1.123060840e-02 4.749769749e-02
1.494949e+09 1.144168004e-02 5.767887529e-02 9.780574483e-01 -1.009569072e-01 9.780571011e-01 -1.009568426e-01 1.091777753e-02 5.801396183e-02
1.989899e+09 1.572608995e-02 8.564343529e-02 9.722479506e-01 -1.244635303e-01 9.722476095e-01 -1.244634485e-01 1.520212639e-02 8.608350749e-02
2.484848e+09 2.177252873e-02 1.116005212e-01 9.654712983e-01 -1.490981361e-01 9.654709647e-01 -1.490980370e-01 2.124796054e-02 1.121459515e-01
2.979798e+09 2.929071083e-02 1.362190582e-01 9.575366319e-01 -1.739952897e-01 9.575363071e-01 -1.739951738e-01 2.876500304e-02 1.368696888e-01
3.474747e+09 3.813816979e-02 1.597445896e-01 9.484188177e-01 -1.987264706e-01 9.484185032e-01 -1.987263385e-01 3.761068494e-02 1.604999962e-01
3.969697e+09 4.821299726e-02 1.822640623e-01 9.381490409e-01 -2.230372479e-01 9.381487380e-01 -2.230371005e-01 4.768294888e-02 1.831236708e-01
4.464646e+09 5.942491902e-02 2.037977131e-01 9.267835095e-01 -2.467569152e-01 9.267832193e-01 -2.467567534e-01 5.889134562e-02 2.047608680e-01
4.959596e+09 7.168619979e-02 2.243368166e-01 9.143918531e-01 -2.697618448e-01 9.143915768e-01 -2.697616697e-01 7.114794851e-02 2.254028290e-01
5.454545e+09 8.490879550e-02 2.438611550e-01 9.010517147e-01 -2.919587036e-01 9.010514534e-01 -2.919585164e-01 8.436451177e-02 2.450293424e-01
5.949495e+09 9.900378468e-02 2.623478025e-01 8.868456377e-01 -3.132759581e-01 8.868453920e-01 -3.132757600e-01 9.845190682e-02 2.636175239e-01
6.444444e+09 1.138817051e-01 2.797757650e-01 8.718589387e-01 -3.336591509e-01 8.718587096e-01 -3.336589432e-01 1.133204630e-01 2.811464536e-01
6.939394e+09 1.294532505e-01 2.961284583e-01 8.561780780e-01 -3.530680023e-01 8.561778660e-01 -3.530677863e-01 1.288806681e-01 2.975996521e-01
7.434343e+09 1.456300865e-01 3.113949711e-01 8.398893280e-01 -3.714744337e-01 8.398891337e-01 -3.714742108e-01 1.450439878e-01 3.129663412e-01
7.929293e+09 1.623256669e-01 3.255705994e-01 8.230776584e-01 -3.888610728e-01 8.230774822e-01 -3.888608443e-01 1.617236844e-01 3.272419769e-01
8.424242e+09 1.794559900e-01 3.386569267e-01 8.058257989e-01 -4.052200152e-01 8.058256411e-01 -4.052197826e-01 1.788355768e-01 3.404283272e-01
8.919192e+09 1.969402645e-01 3.506616121e-01 7.882134613e-01 -4.205517324e-01 7.882133220e-01 -4.205514969e-01 1.962987076e-01 3.525332582e-01
9.414141e+09 2.143509026e-01 3.613178436e-01 7.726267464e-01 -4.343560945e-01 7.726261794e-01 -4.343588685e-01 2.129274240e-01 3.617496504e-01
9.909091e+09 2.326667874e-01 3.714845493e-01 7.522074584e-01 -4.481712864e-01 7.522073564e-01 -4.481710493e-01 2.319742214e-01 3.735582822e-01
1.040404e+10 2.507679650e-01 3.803443511e-01 7.339531208e-01 -4.604932003e-01 7.339530374e-01 -4.604929643e-01 2.500452863e-01 3.825204323e-01
1.089899e+10 2.689415155e-01 3.882044046e-01 7.156163410e-01 -4.718543106e-01 7.156162759e-01 -4.718540770e-01 2.681855188e-01 3.904840660e-01
1.139394e+10 2.871288630e-01 3.950950439e-01 6.972548545e-01 -4.822830259e-01 6.972548074e-01 -4.822827959e-01 2.863362683e-01 3.974798043e-01
1.188889e+10 3.052763846e-01 4.010493163e-01 6.789214304e-01 -4.918109251e-01 6.789214010e-01 -4.918106998e-01 3.044438574e-01 4.035409907e-01
1.238384e+10 3.233353785e-01 4.061023986e-01 6.606638945e-01 -5.004720792e-01 6.606638824e-01 -5.004718598e-01 3.224595501e-01 4.087031060e-01
1.287879e+10 3.412619674e-01 4.102910522e-01 6.425252192e-01 -5.083024324e-01 6.425252239e-01 -5.083022200e-01 3.403394559e-01 4.130032214e-01
1.337374e+10 3.590169493e-01 4.136531222e-01 6.245436680e-01 -5.153392442e-01 6.245436890e-01 -5.153390397e-01 3.580443799e-01 4.164794962e-01
1.386869e+10 3.765656056e-01 4.162270856e-01 6.067529839e-01 -5.216205910e-01 6.067530205e-01 -5.216203954e-01 3.755396303e-01 4.191707242e-01
1.436364e+10 3.938774759e-01 4.180516489e-01 5.891826110e-01 -5.271849282e-01 5.891826627e-01 -5.271847424e-01 3.927947939e-01 4.211159306e-01
1.485859e+10 4.109261104e-01 4.191653965e-01 5.718579407e-01 -5.320707076e-01 5.718580067e-01 -5.320705324e-01 4.097834868e-01 4.223540183e-01
1.535354e+10 4.276888058e-01 4.196064875e-01 5.548005734e-01 -5.363160506e-01 5.548006531e-01 -5.363158868e-01 4.264830909e-01 4.229234646e-01
1.584848e+10 4.441463329e-01 4.194123990e-01 5.380285895e-01 -5.399584707e-01 5.380286822e-01 -5.399583191e-01 4.428744802e-01 4.228620626e-01
1.634343e+10 4.602826612e-01 4.186197126e-01 5.215568241e-01 -5.430346435e-01 5.215569290e-01 -5.430345046e-01 4.589417456e-01 4.222067077e-01
1.683838e+10 4.760846855e-01 4.172639410e-01 5.053971388e-01 -5.455802183e-01 5.053972551e-01 -5.455800929e-01 4.746719206e-01 4.209932232e-01
1.733333e+10 4.890592509e-01 4.165185650e-01 4.913746909e-01 -5.516972418e-01 4.913761423e-01 -5.516952402e-01 4.856964187e-01 4.195464394e-01
1.782828e+10 5.066464313e-01 4.129990600e-01 4.740481816e-01 -5.492161797e-01 4.740483185e-01 -5.492160828e-01 5.050822475e-01 4.170290039e-01
1.832323e+10 5.213922081e-01 4.101545573e-01 4.588701219e-01 -5.503715572e-01 4.588702678e-01 -5.503714752e-01 5.197488153e-01 4.143434749e-01
1.881818e+10 5.357753095e-01 4.068760570e-01 4.440270476e-01 -5.511261743e-01 4.440272018e-01 -5.511261077e-01 5.340506416e-01 4.112301007e-01
1.931313e+10 5.497934536e-01 4.031922676e-01 4.295197489e-01 -5.515089329e-01 4.295199104e-01 -5.515088819e-01 5.479856645e-01 4.077178753e-01
1.980808e+10 5.634458501e-01 3.991304223e-01 4.153474737e-01 -5.515472466e-01 4.153476419e-01 -5.515472117e-01 5.615533285e-01 4.038343109e-01
2.030303e+10 5.767330096e-01 3.947162849e-01 4.015081185e-01 -5.512670408e-01 4.015082925e-01 -5.512670222e-01 5.747543943e-01 3.996054438e-01
2.079798e+10 5.896565679e-01 3.899741687e-01 3.879984036e-01 -5.506927652e-01 3.879985826e-01 -5.506927633e-01 5.875907630e-01 3.950558525e-01
2.129293e+10 6.022191254e-01 3.849269662e-01 3.748140347e-01 -5.498474182e-01 3.748142179e-01 -5.498474330e-01 6.000653146e-01 3.902086871e-01
2.178788e+10 6.144241001e-01 3.795961872e-01 3.619498495e-01 -5.487525793e-01 3.619500359e-01 -5.487526110e-01 6.121817616e-01 3.850857071e-01
2.228283e+10 6.262755946e-01 3.740020043e-01 3.493999512e-01 -5.474284496e-01 3.494001402e-01 -5.474284983e-01 6.239445157e-01 3.797073264e-01
2.277778e+10 6.377782758e-01 3.681633031e-01 3.371578297e-01 -5.458938968e-01 3.371580204e-01 -5.458939627e-01 6.353585675e-01 3.740926629e-01
2.327273e+10 6.489372670e-01 3.620977362e-01 3.252164698e-01 -5.441665048e-01 3.252166614e-01 -5.441665879e-01 6.464293785e-01 3.682595923e-01
2.376768e+10 6.597580512e-01 3.558217807e-01 3.135684492e-01 -5.422626252e-01 3.135686410e-01 -5.422627254e-01 6.571627843e-01 3.622248046e-01
2.426263e+10 6.702463849e-01 3.493507959e-01 3.022060256e-01 -5.401974314e-01 3.022062168e-01 -5.401975489e-01 6.675649088e-01 3.560038618e-01
2.475758e+10 6.804082215e-01 3.426990831e-01 2.911212142e-01 -5.379849732e-01 2.911214039e-01 -5.379851079e-01 6.776420871e-01 3.496112568e-01
2.525253e+10 6.902496443e-01 3.358799451e-01 2.803058568e-01 -5.356382314e-01 2.803060443e-01 -5.356383831e-01 6.874007988e-01 3.430604721e-01
2.574747e+10 6.997768067e-01 3.289057453e-01 2.697516827e-01 -5.331691719e-01 2.697518674e-01 -5.331693406e-01 6.968476083e-01 3.363640385e-01
2.624242e+10 7.089958809e-01 3.217879654e-01 2.594503628e-01 -5.305887997e-01 2.594505438e-01 -5.305889851e-01 7.059891130e-01 3.295335919e-01
2.673737e+10 7.179130123e-01 3.145372628e-01 2.493935564e-01 -5.279072104e-01 2.493937330e-01 -5.279074125e-01 7.148318982e-01 3.225799300e-01
2.723232e+10 7.265342814e-01 3.071635259e-01 2.395729528e-01 -5.251336414e-01 2.395731242e-01 -5.251338600e-01 7.233824983e-01 3.155130662e-01
2.772727e+10 7.348656696e-01 2.996759277e-01 2.299803073e-01 -5.222765209e-01 2.299804729e-01 -5.222767557e-01 7.316473635e-01 3.083422833e-01
2.822222e+10 7.429130317e-01 2.920829776e-01 2.206074729e-01 -5.193435145e-01 2.206076320e-01 -5.193437654e-01 7.396328309e-01 3.010761835e-01
2.871717e+10 7.506820715e-01 2.843925712e-01 2.114464273e-01 -5.163415710e-01 2.114465792e-01 -5.163418377e-01 7.473451009e-01 2.937227375e-01
2.921212e+10 7.581783226e-01 2.766120382e-01 2.024892966e-01 -5.132769652e-01 2.024894407e-01 -5.132772473e-01 7.547902170e-01 2.862893314e-01
2.970707e+10 7.654071318e-01 2.687481882e-01 1.937283756e-01 -5.101553390e-01 1.937285111e-01 -5.101556362e-01 7.619740494e-01 2.787828111e-01
3.020202e+10 7.723736465e-01 2.608073539e-01 1.851561449e-01 -5.069817410e-01 1.851562712e-01 -5.069820530e-01 7.689022819e-01 2.712095251e-01
3.069697e+10 7.790828048e-01 2.527954334e-01 1.767652863e-01 -5.037606634e-01 1.767654028e-01 -5.037609899e-01 7.755804011e-01 2.635753643e-01
3.119192e+10 7.855393282e-01 2.447179290e-01 1.685486951e-01 -5.004960776e-01 1.685488012e-01 -5.004964182e-01 7.820136890e-01 2.558858011e-01
3.168687e+10 7.917477164e-01 2.365799854e-01 1.604994911e-01 -4.971914677e-01 1.604995861e-01 -4.971918220e-01 7.882072171e-01 2.481459254e-01
3.218182e+10 7.977122447e-01 2.283864254e-01 1.526110274e-01 -4.938498622e-01 1.526111109e-01 -4.938502297e-01 7.941658429e-01 2.403604791e-01
3.267677e+10 8.034369628e-01 2.201417833e-01 1.448768985e-01 -4.904738645e-01 1.448769698e-01 -4.904742447e-01 7.998942077e-01 2.325338884e-01
3.317172e+10 8.089256957e-01 2.118503372e-01 1.372909461e-01 -4.870656813e-01 1.372910047e-01 -4.870660738e-01 8.053967369e-01 2.246702953e-01
3.366667e+10 8.135731960e-01 2.043381652e-01 1.279216083e-01 -4.844115883e-01 1.279212964e-01 -4.844120849e-01 8.096121884e-01 2.181078510e-01
3.416162e+10 8.192093968e-01 1.951430454e-01 1.225402065e-01 -4.801597655e-01 1.225402380e-01 -4.801601811e-01 8.157409159e-01 2.088474170e-01
3.465657e+10 8.240109177e-01 1.867347397e-01 1.153643835e-01 -4.766647028e-01 1.153644008e-01 -4.766651292e-01 8.205903513e-01 2.008952449e-01
3.515152e+10 8.285895699e-01 1.782947628e-01 1.083146720e-01 -4.731428432e-01 1.083146745e-01 -4.731432798e-01 8.252295300e-01 1.929203463e-01
3.564646e+10 8.329481135e-01 1.698265345e-01 1.013862136e-01 -4.695947951e-01 1.013862009e-01 -4.695952413e-01 8.296618361e-01 1.849258428e-01
3.614141e+10 8.370891154e-01 1.613333764e-01 9.457441763e-02 -4.660209167e-01 9.457438927e-02 -4.660213719e-01 8.338904602e-01 1.769147222e-01
3.663636e+10 8.410149581e-01 1.528185336e-01 8.787496189e-02 -4.624213365e-01 8.787491748e-02 -4.624218001e-01 8.379184067e-01 1.688898586e-01
3.713131e+10 8.447278494e-01 1.442851939e-01 8.128379360e-02 -4.587959738e-01 8.128373274e-02 -4.587964452e-01 8.417485010e-01 1.608540309e-01
3.762626e+10 8.482298325e-01 1.357365069e-01 7.479712961e-02 -4.551445578e-01 7.479705194e-02 -4.551450363e-01 8.453833979e-01 1.528099413e-01
3.812121e+10 8.515227973e-01 1.271756010e-01 6.841145639e-02 -4.514666473e-01 6.841136156e-02 -4.514671322e-01 8.488255900e-01 1.447602307e-01
3.861616e+10 8.546084917e-01 1.186055994e-01 6.212352949e-02 -4.477616484e-01 6.212341719e-02 -4.477621391e-01 8.520774166e-01 1.367074950e-01
3.911111e+10 8.574885338e-01 1.100296350e-01 5.593037270e-02 -4.440288333e-01 5.593024265e-02 -4.440293291e-01 8.551410738e-01 1.286542989e-01
3.960606e+10 8.601644249e-01 1.014508637e-01 4.982927678e-02 -4.402673577e-01 4.982912871e-02 -4.402678578e-01 8.580186240e-01 1.206031895e-01
4.010101e+10 8.626375621e-01 9.287247695e-02 4.381779769e-02 -4.364762781e-01 4.381763137e-02 -4.364767818e-01 8.607120061e-01 1.125567080e-01
4.059596e+10 8.649092524e-01 8.429771262e-02 3.789375452e-02 -4.326545690e-01 3.789356975e-02 -4.326550756e-01 8.632230465e-01 1.045174011e-01
4.109091e+10 8.669807267e-01 7.572986517e-02 3.205522680e-02 -4.288011401e-01 3.205502341e-02 -4.288016488e-01 8.655534696e-01 9.648783173e-02
4.158586e+10 8.688531535e-01 6.717229420e-02 2.630055138e-02 -4.249148523e-01 2.630032922e-02 -4.249153623e-01 8.677049093e-01 8.847058739e-02
4.208081e+10 8.705276542e-01 5.862843195e-02 2.062831873e-02 -4.209945347e-01 2.062807769e-02 -4.209950453e-01 8.696789200e-01 8.046828910e-02
4.257576e+10 8.720053176e-01 5.010178962e-02 1.503736868e-02 -4.170390004e-01 1.503710870e-02 -4.170395108e-01 8.714769884e-01 7.248359854e-02
4.307071e+10 8.732872151e-01 4.159596239e-02 9.526785514e-03 -4.130470629e-01 9.526506543e-03 -4.130475723e-01 8.731005454e-01 6.451922442e-02
4.356566e+10 8.743744154e-01 3.311463326e-02 4.095892396e-03 -4.090175514e-01 4.095594431e-03 -4.090180590e-01 8.745509776e-01 5.657792798e-02
4.406061e+10 8.752680006e-01 2.466157566e-02 -1.255754903e-03 -4.049493268e-01 -1.256071834e-03 -4.049498317e-01 8.758296397e-01 4.866252754e-02
4.455556e+10 8.758848803e-01 1.558180735e-02 -4.906062300e-03 -4.007309960e-01 -4.906447307e-03 -4.007314638e-01 8.768630961e-01 4.012105049e-02
4.505051e+10 8.764158033e-01 7.201977585e-03 -1.017966077e-02 -3.966733742e-01 -1.018005316e-02 -3.966738426e-01 8.778122113e-01 3.227020033e-02
4.554545e+10 8.767533220e-01 -1.113744329e-03 -1.542021445e-02 -3.925600316e-01 -1.542061456e-02 -3.925605003e-01 8.785924711e-01 2.447868586e-02
4.604040e+10 8.768997787e-01 -9.360141366e-03 -2.062946047e-02 -3.883870366e-01 -2.062986871e-02 -3.883875055e-01 8.792063689e-01 1.675008333e-02
4.653535e+10 8.768459664e-01 -1.754414608e-02 -2.581234548e-02 -3.841665696e-01 -2.581276223e-02 -3.841670383e-01 8.796544474e-01 9.068839015e-03
4.703030e+10 8.766296183e-01 -2.524028598e-02 -3.169897739e-02 -3.796709252e-01 -3.169940547e-02 -3.796713976e-01 8.799692954e-01 1.879663867e-03
4.752525e+10 8.762178097e-01 -3.363665543e-02 -3.608076890e-02 -3.754640117e-01 -3.608120411e-02 -3.754644795e-01 8.800792808e-01 -6.020405117e-03
4.802020e+10 8.755925625e-01 -4.146254526e-02 -4.119891835e-02 -3.708952231e-01 -4.119938159e-02 -3.708956785e-01 8.800367214e-01 -1.336941344e-02
4.851515e+10 8.748018448e-01 -4.947675411e-02 -4.582306774e-02 -3.664397179e-01 -4.582354804e-02 -3.664401636e-01 8.798310682e-01 -2.091447374e-02
4.901010e+10 8.739434198e-01 -5.711903094e-02 -5.127958201e-02 -3.618067797e-01 -5.128004800e-02 -3.618072432e-01 8.795620416e-01 -2.804932866e-02
4.950505e+10 8.728773546e-01 -6.470108529e-02 -5.626175218e-02 -3.570319452e-01 -5.626222926e-02 -3.570324062e-01 8.791195279e-01 -3.517042323e-02
5.000000e+10 8.716668684e-01 -7.215367712e-02 -6.119746105e-02 -3.521391281e-01 -6.119794953e-02 -3.521395860e-01 8.785508928e-01 -4.217554128e-02
