! rapidmom parametric dataset (SG13G2 open stack, IHP)
! device = spiral
! family = spiral_N2
! stack = IHP SG13G2 (open PDK)
! Dout_um = 100
! width_um = 10
! spacing_um = 3
! sides = 8
! n_ports = 2
! n_dof = 4608
! cell_um = 2.5
! sweep = ROM (rational fit from adaptive anchor solves)
! rom_converged = True
! f_points = 100
! f_min_hz = 1.000e+09
! f_max_hz = 5.000e+10
! tool = rapidmom (2.5D MoM, A-EFIE)
! N = 2
# HZ S RI R 50
1.000000e+09 7.012569877e-03 2.791378675e-02 9.907796372e-01 -3.654228292e-02 9.907797960e-01 -3.654220138e-02 7.020472697e-03 2.791696091e-02
1.494949e+09 1.342377898e-02 3.968609164e-02 9.940411660e-01 -5.621627571e-02 9.940418688e-01 -5.621504409e-02 1.345951332e-02 3.961445642e-02
1.989899e+09 1.406311573e-02 5.324413635e-02 9.905150601e-01 -7.369558673e-02 9.905161513e-01 -7.369428483e-02 1.405903853e-02 5.317389765e-02
2.484848e+09 1.531433642e-02 6.709606253e-02 9.866868757e-01 -9.052551733e-02 9.866882917e-01 -9.052425639e-02 1.527180405e-02 6.703584945e-02
2.979798e+09 1.722396205e-02 8.106013565e-02 9.826345584e-01 -1.069107413e-01 9.826362242e-01 -1.069095846e-01 1.714517300e-02 8.101522610e-02
3.474747e+09 1.977908645e-02 9.500896852e-02 9.783541673e-01 -1.229819516e-01 9.783560139e-01 -1.229809295e-01 1.966584019e-02 9.498237387e-02
3.969697e+09 2.294553149e-02 1.088570656e-01 9.738150277e-01 -1.388107846e-01 9.738169972e-01 -1.388099072e-01 2.279885002e-02 1.088504723e-01
4.464646e+09 2.668500146e-02 1.225469412e-01 9.689845263e-01 -1.544298393e-01 9.689865720e-01 -1.544291056e-01 2.650513277e-02 1.225613405e-01
4.959596e+09 3.096134645e-02 1.360385202e-01 9.638368487e-01 -1.698484131e-01 9.638389332e-01 -1.698478159e-01 3.074789197e-02 1.360745852e-01
5.454545e+09 3.574206960e-02 1.493022758e-01 9.583547440e-01 -1.850627829e-01 9.583568376e-01 -1.850623119e-01 3.549412800e-02 1.493605753e-01
5.949495e+09 4.099808600e-02 1.623151229e-01 9.525287701e-01 -2.000624002e-01 9.525308489e-01 -2.000620435e-01 4.071437780e-02 1.623962388e-01
6.444444e+09 4.670300671e-02 1.750580565e-01 9.463558878e-01 -2.148334869e-01 9.463579326e-01 -2.148332319e-01 4.638197263e-02 1.751626463e-01
6.939394e+09 5.283241962e-02 1.875148214e-01 9.398380844e-01 -2.293610889e-01 9.398400793e-01 -2.293609229e-01 5.247229539e-02 1.876436507e-01
7.434343e+09 5.936330760e-02 1.996711729e-01 9.329812203e-01 -2.436302377e-01 9.329831527e-01 -2.436301482e-01 5.896218025e-02 1.998251312e-01
7.929293e+09 6.627362100e-02 2.115144704e-01 9.257941190e-01 -2.576266034e-01 9.257959784e-01 -2.576265780e-01 6.582947121e-02 2.116945778e-01
8.424242e+09 7.354198217e-02 2.230334548e-01 9.182878607e-01 -2.713368545e-01 9.182896386e-01 -2.713368811e-01 7.305271641e-02 2.232408644e-01
8.919192e+09 8.114749207e-02 2.342181277e-01 9.104752369e-01 -2.847488508e-01 9.104769264e-01 -2.847489176e-01 8.061096743e-02 2.344541250e-01
9.414141e+09 8.926035411e-02 2.460249961e-01 9.024103818e-01 -2.972751256e-01 9.024103603e-01 -2.972737887e-01 8.864268168e-02 2.460831178e-01
9.909091e+09 9.728810088e-02 2.555504674e-01 8.939881476e-01 -3.106359718e-01 8.939896456e-01 -3.106360851e-01 9.665052582e-02 2.558480188e-01
1.040404e+10 1.057829864e-01 2.656839477e-01 8.853444108e-01 -3.230933392e-01 8.853458080e-01 -3.230934594e-01 1.050916041e-01 2.660147216e-01
1.089899e+10 1.145345671e-01 2.754546879e-01 8.764552746e-01 -3.352169127e-01 8.764565690e-01 -3.352170294e-01 1.137871984e-01 2.758204818e-01
1.139394e+10 1.235234285e-01 2.848583209e-01 8.673371754e-01 -3.470010243e-01 8.673383661e-01 -3.470011276e-01 1.227179129e-01 2.852610551e-01
1.188889e+10 1.327304702e-01 2.938915182e-01 8.580066719e-01 -3.584412163e-01 8.580077586e-01 -3.584412964e-01 1.318646742e-01 2.943332339e-01
1.238384e+10 1.421369409e-01 3.025519558e-01 8.484803161e-01 -3.695341876e-01 8.484812995e-01 -3.695342355e-01 1.412087651e-01 3.030348133e-01
1.287879e+10 1.517244746e-01 3.108382753e-01 8.387745433e-01 -3.802777366e-01 8.387754248e-01 -3.802777434e-01 1.507318607e-01 3.113645523e-01
1.337374e+10 1.614751283e-01 3.187500414e-01 8.289055786e-01 -3.906706996e-01 8.289063602e-01 -3.906706570e-01 1.604160653e-01 3.193221310e-01
1.386869e+10 1.713714187e-01 3.262876960e-01 8.188893564e-01 -4.007128886e-01 8.188900408e-01 -4.007127888e-01 1.702439488e-01 3.269081049e-01
1.436364e+10 1.813963554e-01 3.334525086e-01 8.087414527e-01 -4.104050268e-01 8.087420432e-01 -4.104048622e-01 1.801985800e-01 3.341238556e-01
1.485859e+10 1.915334725e-01 3.402465255e-01 7.984770275e-01 -4.197486837e-01 7.984775279e-01 -4.197484476e-01 1.902635570e-01 3.409715393e-01
1.535354e+10 2.017668547e-01 3.466725168e-01 7.881107764e-01 -4.287462109e-01 7.881111910e-01 -4.287458967e-01 2.004230346e-01 3.474540340e-01
1.584848e+10 2.120811609e-01 3.527339224e-01 7.776568911e-01 -4.374006773e-01 7.776572246e-01 -4.374002793e-01 2.106617462e-01 3.535748857e-01
1.634343e+10 2.224616424e-01 3.584347982e-01 7.671290272e-01 -4.457158061e-01 7.671292848e-01 -4.457153189e-01 2.209650231e-01 3.593382537e-01
1.683838e+10 2.328941577e-01 3.637797617e-01 7.565402793e-01 -4.536959126e-01 7.565404665e-01 -4.536953314e-01 2.313188084e-01 3.647488569e-01
1.733333e+10 2.427954734e-01 3.678985945e-01 7.458388715e-01 -4.617773236e-01 7.458411389e-01 -4.617785038e-01 2.409402610e-01 3.687766461e-01
1.782828e+10 2.538618173e-01 3.734229116e-01 7.352295960e-01 -4.686709193e-01 7.352296601e-01 -4.686701379e-01 2.521247940e-01 3.745331211e-01
1.832323e+10 2.643717874e-01 3.777326672e-01 7.245309022e-01 -4.756768765e-01 7.245309140e-01 -4.756759900e-01 2.625520129e-01 3.789185405e-01
1.881818e+10 2.748834448e-01 3.817095487e-01 7.138177957e-01 -4.823698151e-01 7.138177619e-01 -4.823688211e-01 2.729797787e-01 3.829746115e-01
1.931313e+10 2.853857626e-01 3.853602083e-01 7.031003883e-01 -4.887561466e-01 7.031003156e-01 -4.887550430e-01 2.833971720e-01 3.867080734e-01
1.980808e+10 2.958683283e-01 3.886915617e-01 6.923881923e-01 -4.948425452e-01 6.923880874e-01 -4.948413307e-01 2.937938916e-01 3.901259255e-01
2.030303e+10 3.063213340e-01 3.917107461e-01 6.816901279e-01 -5.006359024e-01 6.816899978e-01 -5.006345761e-01 3.041602453e-01 3.932353852e-01
2.079798e+10 3.167355645e-01 3.944250795e-01 6.710145343e-01 -5.061432833e-01 6.710143859e-01 -5.061418450e-01 3.144871375e-01 3.960438467e-01
2.129293e+10 3.271023834e-01 3.968420232e-01 6.603691820e-01 -5.113718871e-01 6.603690223e-01 -5.113703371e-01 3.247660548e-01 3.985588442e-01
2.178788e+10 3.374137172e-01 3.989691468e-01 6.497612880e-01 -5.163290092e-01 6.497611239e-01 -5.163273483e-01 3.349890508e-01 4.007880155e-01
2.228283e+10 3.476620381e-01 4.008140953e-01 6.391975326e-01 -5.210220070e-01 6.391973711e-01 -5.210202366e-01 3.451487279e-01 4.027390702e-01
2.277778e+10 3.578403456e-01 4.023845595e-01 6.286840775e-01 -5.254582681e-01 6.286839252e-01 -5.254563901e-01 3.552382195e-01 4.044197588e-01
2.327273e+10 3.679421471e-01 4.036882481e-01 6.182265849e-01 -5.296451814e-01 6.182264487e-01 -5.296431984e-01 3.652511699e-01 4.058378457e-01
2.376768e+10 3.779614382e-01 4.047328630e-01 6.078302380e-01 -5.335901108e-01 6.078301244e-01 -5.335880257e-01 3.751817144e-01 4.070010835e-01
2.426263e+10 3.878926815e-01 4.055260763e-01 5.974997618e-01 -5.373003711e-01 5.974996772e-01 -5.372981875e-01 3.850244585e-01 4.079171904e-01
2.475758e+10 3.977307862e-01 4.060755101e-01 5.872394443e-01 -5.407832074e-01 5.872393948e-01 -5.407809290e-01 3.947744568e-01 4.085938298e-01
2.525253e+10 4.074710870e-01 4.063887183e-01 5.770531579e-01 -5.440457749e-01 5.770531495e-01 -5.440434063e-01 4.044271914e-01 4.090385914e-01
2.574747e+10 4.171093226e-01 4.064731701e-01 5.669443814e-01 -5.470951234e-01 5.669444198e-01 -5.470926694e-01 4.139785515e-01 4.092589756e-01
2.624242e+10 4.266416154e-01 4.063362364e-01 5.569162213e-01 -5.499381816e-01 5.569163120e-01 -5.499356475e-01 4.234248115e-01 4.092623787e-01
2.673737e+10 4.360644506e-01 4.059851769e-01 5.469714331e-01 -5.525817448e-01 5.469715812e-01 -5.525791363e-01 4.327626105e-01 4.090560809e-01
2.723232e+10 4.453746559e-01 4.054271298e-01 5.371124425e-01 -5.550324640e-01 5.371126529e-01 -5.550297872e-01 4.419889318e-01 4.086472350e-01
2.772727e+10 4.545693816e-01 4.046691024e-01 5.273413660e-01 -5.572968363e-01 5.273416432e-01 -5.572940977e-01 4.511010829e-01 4.080428578e-01
2.822222e+10 4.636460817e-01 4.037179643e-01 5.176600310e-01 -5.593811978e-01 5.176603791e-01 -5.593784041e-01 4.600966758e-01 4.072498223e-01
2.871717e+10 4.726024946e-01 4.025804403e-01 5.080699952e-01 -5.612917170e-01 5.080704181e-01 -5.612888755e-01 4.689736084e-01 4.062748513e-01
2.921212e+10 4.814366255e-01 4.012631064e-01 4.985725659e-01 -5.630343902e-01 4.985730670e-01 -5.630315084e-01 4.777300459e-01 4.051245128e-01
2.970707e+10 4.901467289e-01 3.997723854e-01 4.891688179e-01 -5.646150379e-01 4.891694003e-01 -5.646121235e-01 4.863644033e-01 4.038052159e-01
3.020202e+10 4.987312917e-01 3.981145444e-01 4.798596113e-01 -5.660393024e-01 4.798602776e-01 -5.660363633e-01 4.948753285e-01 4.023232084e-01
3.069697e+10 5.071890175e-01 3.962956934e-01 4.706456082e-01 -5.673126460e-01 4.706463607e-01 -5.673096905e-01 5.032616861e-01 4.006845744e-01
3.119192e+10 5.155188113e-01 3.943217838e-01 4.615272892e-01 -5.684403509e-01 4.615281297e-01 -5.684373876e-01 5.115225419e-01 3.988952341e-01
3.168687e+10 5.237197651e-01 3.921986088e-01 4.525049681e-01 -5.694275196e-01 4.525058979e-01 -5.694245571e-01 5.196571482e-01 3.969609432e-01
3.218182e+10 5.317911437e-01 3.899318036e-01 4.435788069e-01 -5.702790753e-01 4.435798270e-01 -5.702761225e-01 5.276649298e-01 3.948872937e-01
3.267677e+10 5.397323726e-01 3.875268468e-01 4.347488298e-01 -5.709997643e-01 4.347499406e-01 -5.709968302e-01 5.355454710e-01 3.926797148e-01
3.317172e+10 5.475430247e-01 3.849890617e-01 4.260149357e-01 -5.715941582e-01 4.260161374e-01 -5.715912518e-01 5.432985026e-01 3.903434747e-01
3.366667e+10 5.551611452e-01 3.823903029e-01 4.172170208e-01 -5.721076634e-01 4.172179033e-01 -5.721047949e-01 5.509405281e-01 3.879629138e-01
3.416162e+10 5.627715625e-01 3.795355387e-01 4.088344422e-01 -5.724214889e-01 4.088358238e-01 -5.724186661e-01 5.584216253e-01 3.853052924e-01
3.465657e+10 5.701892335e-01 3.766296936e-01 4.003871237e-01 -5.726627219e-01 4.003885936e-01 -5.726599549e-01 5.657918095e-01 3.826131033e-01
3.515152e+10 5.774758788e-01 3.736108119e-01 3.920344716e-01 -5.727942594e-01 3.920360280e-01 -5.727915576e-01 5.730346507e-01 3.798117649e-01
3.564646e+10 5.849165667e-01 3.705005467e-01 3.838635004e-01 -5.726540063e-01 3.838650887e-01 -5.726505787e-01 5.805430071e-01 3.769064413e-01
3.614141e+10 5.916567937e-01 3.672521497e-01 3.756108871e-01 -5.727430850e-01 3.756126092e-01 -5.727405423e-01 5.871395971e-01 3.738995093e-01
3.663636e+10 5.985516279e-01 3.639211350e-01 3.675386696e-01 -5.725674153e-01 3.675404701e-01 -5.725649661e-01 5.940025564e-01 3.707971723e-01
3.713131e+10 6.053165508e-01 3.604946225e-01 3.595585646e-01 -5.722961436e-01 3.595604399e-01 -5.722937976e-01 6.007398655e-01 3.676028544e-01
3.762626e+10 6.119520263e-01 3.569766722e-01 3.516698194e-01 -5.719324362e-01 3.516717654e-01 -5.719302025e-01 6.073521254e-01 3.643205095e-01
3.812121e+10 6.184585797e-01 3.533712219e-01 3.438716495e-01 -5.714793258e-01 3.438736617e-01 -5.714772138e-01 6.138399948e-01 3.609539637e-01
3.861616e+10 6.248367914e-01 3.496820912e-01 3.361632449e-01 -5.709397174e-01 3.361653183e-01 -5.709377362e-01 6.202041845e-01 3.575069203e-01
3.911111e+10 6.310872928e-01 3.459129855e-01 3.285437752e-01 -5.703163929e-01 3.285459045e-01 -5.703145516e-01 6.264454516e-01 3.539829633e-01
3.960606e+10 6.372107605e-01 3.420675000e-01 3.210123951e-01 -5.696120162e-01 3.210145745e-01 -5.696103235e-01 6.325645950e-01 3.503855614e-01
4.010101e+10 6.432079126e-01 3.381491233e-01 3.135682487e-01 -5.688291381e-01 3.135704720e-01 -5.688276029e-01 6.385624505e-01 3.467180724e-01
4.059596e+10 6.490795048e-01 3.341612416e-01 3.062104739e-01 -5.679702015e-01 3.062127344e-01 -5.679688323e-01 6.444398869e-01 3.429837472e-01
4.109091e+10 6.548263262e-01 3.301071420e-01 2.989382059e-01 -5.670375465e-01 2.989404967e-01 -5.670363516e-01 6.501978020e-01 3.391857333e-01
4.158586e+10 6.604491968e-01 3.259900167e-01 2.917505810e-01 -5.660334145e-01 2.917528945e-01 -5.660324022e-01 6.558371196e-01 3.353270791e-01
4.208081e+10 6.659489640e-01 3.218129661e-01 2.846467390e-01 -5.649599538e-01 2.846490675e-01 -5.649591320e-01 6.613587856e-01 3.314107374e-01
4.257576e+10 6.713264999e-01 3.175790025e-01 2.776258267e-01 -5.638192238e-01 2.776281620e-01 -5.638186001e-01 6.667637660e-01 3.274395692e-01
4.307071e+10 6.765826994e-01 3.132910534e-01 2.706869997e-01 -5.626131996e-01 2.706893333e-01 -5.626127813e-01 6.720530437e-01 3.234163472e-01
4.356566e+10 6.817184774e-01 3.089519649e-01 2.638294245e-01 -5.613437763e-01 2.638317475e-01 -5.613435707e-01 6.772276165e-01 3.193437594e-01
4.406061e+10 6.867347673e-01 3.045645046e-01 2.570522809e-01 -5.600127738e-01 2.570545841e-01 -5.600127877e-01 6.822884949e-01 3.152244121e-01
4.455556e+10 6.916325191e-01 3.001313648e-01 2.503547626e-01 -5.586219403e-01 2.503570364e-01 -5.586221803e-01 6.872367002e-01 3.110608336e-01
4.505051e+10 6.964126976e-01 2.956551649e-01 2.437360793e-01 -5.571729568e-01 2.437383140e-01 -5.571734291e-01 6.920732633e-01 3.068554770e-01
4.554545e+10 7.010762815e-01 2.911384552e-01 2.371954576e-01 -5.556674409e-01 2.371976430e-01 -5.556681515e-01 6.967992223e-01 3.026107235e-01
4.604040e+10 7.056242620e-01 2.865837182e-01 2.307321414e-01 -5.541069507e-01 2.307342672e-01 -5.541079051e-01 7.014156221e-01 2.983288847e-01
4.653535e+10 7.100576415e-01 2.819933723e-01 2.243453935e-01 -5.524929879e-01 2.243474489e-01 -5.524941914e-01 7.059235127e-01 2.940122061e-01
4.703030e+10 7.143774330e-01 2.773697734e-01 2.180344950e-01 -5.508270018e-01 2.180364691e-01 -5.508284593e-01 7.103239486e-01 2.896628690e-01
4.752525e+10 7.185846590e-01 2.727152176e-01 2.117987465e-01 -5.491103925e-01 2.118006283e-01 -5.491121085e-01 7.146179875e-01 2.852829938e-01
4.802020e+10 7.226803510e-01 2.680319429e-01 2.056374680e-01 -5.473445141e-01 2.056392460e-01 -5.473464927e-01 7.188066897e-01 2.808746418e-01
4.851515e+10 7.266655486e-01 2.633221318e-01 1.995499988e-01 -5.455306775e-01 1.995516615e-01 -5.455329226e-01 7.228911178e-01 2.764398174e-01
4.901010e+10 7.305412993e-01 2.585879129e-01 1.935356976e-01 -5.436701536e-01 1.935372333e-01 -5.436726684e-01 7.268723355e-01 2.719804710e-01
4.950505e+10 7.343086580e-01 2.538313625e-01 1.875939425e-01 -5.417641758e-01 1.875953392e-01 -5.417669635e-01 7.307514077e-01 2.674985004e-01
5.000000e+10 7.379214130e-01 2.490582310e-01 1.817250602e-01 -5.398648817e-01 1.817263338e-01 -5.398681546e-01 7.344590670e-01 2.630139781e-01
