! rapidmom parametric dataset (SG13G2 open stack, IHP)
! device = spiral
! family = spiral_N2
! stack = IHP SG13G2 (open PDK)
! Dout_um = 180
! width_um = 10
! spacing_um = 3
! sides = 8
! n_ports = 2
! n_dof = 5233
! cell_um = 3.333
! sweep = ROM (rational fit from adaptive anchor solves)
! rom_converged = True
! f_points = 100
! f_min_hz = 1.000e+09
! f_max_hz = 5.000e+10
! tool = rapidmom (2.5D MoM, A-EFIE)
! N = 2
# HZ S RI R 50
1.000000e+09 1.652966711e-02 6.807584596e-02 9.785173140e-01 -8.469737061e-02 9.785180987e-01 -8.469520197e-02 1.654840188e-02 6.806666072e-02
1.494949e+09 2.550428309e-02 9.885323222e-02 9.724520341e-01 -1.255081716e-01 9.724518035e-01 -1.255084701e-01 2.390455604e-02 9.922547086e-02
1.989899e+09 3.525327367e-02 1.336114511e-01 9.620679825e-01 -1.620649110e-01 9.620677131e-01 -1.620653024e-01 3.364313310e-02 1.341026135e-01
2.484848e+09 4.772735514e-02 1.665649154e-01 9.492303501e-01 -1.979947693e-01 9.492300322e-01 -1.979952482e-01 4.610354846e-02 1.671771420e-01
2.979798e+09 6.265049450e-02 1.977571895e-01 9.340377641e-01 -2.327671841e-01 9.340373887e-01 -2.327677441e-01 6.100996613e-02 1.984924418e-01
3.474747e+09 7.977759109e-02 2.271048865e-01 9.166733753e-01 -2.660472030e-01 9.166729344e-01 -2.660478369e-01 7.811739875e-02 2.279652061e-01
3.969697e+09 9.886168809e-02 2.544994947e-01 8.973578192e-01 -2.975993723e-01 8.973573059e-01 -2.976000722e-01 9.717898328e-02 2.554871001e-01
4.464646e+09 1.196501111e-01 2.798427577e-01 8.763309020e-01 -3.272548148e-01 8.763303104e-01 -3.272555720e-01 1.179421368e-01 2.809600868e-01
4.959596e+09 1.418876082e-01 3.030603385e-01 8.538408409e-01 -3.548970277e-01 8.538401663e-01 -3.548978334e-01 1.401517022e-01 3.043100675e-01
5.454545e+09 1.653211968e-01 3.241066664e-01 8.301363787e-01 -3.804539041e-01 8.301356176e-01 -3.804547491e-01 1.635547970e-01 3.254917187e-01
5.949495e+09 1.897050469e-01 3.429655572e-01 8.054605466e-01 -4.038918844e-01 8.054596965e-01 -4.038927596e-01 1.879056967e-01 3.444891078e-01
6.444444e+09 2.148047663e-01 3.596485789e-01 7.800457198e-01 -4.252108171e-01 7.800447792e-01 -4.252117133e-01 2.129701209e-01 3.613140559e-01
6.939394e+09 2.404008410e-01 3.741921698e-01 7.541098339e-01 -4.444390649e-01 7.541088024e-01 -4.444399734e-01 2.385286734e-01 3.760032549e-01
7.434343e+09 2.662911596e-01 3.866541090e-01 7.278536715e-01 -4.616287631e-01 7.278525495e-01 -4.616296751e-01 2.643793664e-01 3.886147378e-01
7.929293e+09 2.922926482e-01 3.971097294e-01 7.014591167e-01 -4.768512726e-01 7.014579055e-01 -4.768521799e-01 2.903392561e-01 3.992240910e-01
8.424242e+09 3.182421003e-01 4.056481420e-01 6.750882588e-01 -4.901929114e-01 6.750869605e-01 -4.901938062e-01 3.162452723e-01 4.079206792e-01
8.919192e+09 3.439963150e-01 4.123686538e-01 6.488832122e-01 -5.017510425e-01 6.488818293e-01 -5.017519176e-01 3.419543571e-01 4.148040630e-01
9.414141e+09 3.623257044e-01 4.196586197e-01 6.193772088e-01 -5.148061472e-01 6.193788213e-01 -5.148017813e-01 3.601879809e-01 4.207749937e-01
9.909091e+09 3.944432666e-01 4.207849389e-01 5.974419693e-01 -5.199409267e-01 5.974404273e-01 -5.199417426e-01 3.923065751e-01 4.235611973e-01
1.040404e+10 4.189437377e-01 4.227028043e-01 5.723958130e-01 -5.267934089e-01 5.723941974e-01 -5.267941864e-01 4.167577656e-01 4.256575493e-01
1.089899e+10 4.428618735e-01 4.232424100e-01 5.478980918e-01 -5.322991007e-01 5.478964068e-01 -5.322998348e-01 4.406255739e-01 4.263813567e-01
1.139394e+10 4.661411074e-01 4.225128954e-01 5.240041631e-01 -5.365671064e-01 5.240024133e-01 -5.365677925e-01 4.638536162e-01 4.258420153e-01
1.188889e+10 4.887379634e-01 4.206199179e-01 5.007562428e-01 -5.397032060e-01 5.007544331e-01 -5.397038400e-01 4.863986090e-01 4.241454395e-01
1.238384e+10 5.106205156e-01 4.176646736e-01 4.781849426e-01 -5.418088390e-01 4.781830778e-01 -5.418094175e-01 5.082288289e-01 4.213930830e-01
1.287879e+10 5.317669009e-01 4.137432010e-01 4.563107527e-01 -5.429803803e-01 4.563088379e-01 -5.429809003e-01 5.293226259e-01 4.176812422e-01
1.337374e+10 5.521639173e-01 4.089459240e-01 4.351454411e-01 -5.433086608e-01 4.351434812e-01 -5.433091196e-01 5.496670226e-01 4.131005996e-01
1.386869e+10 5.718057261e-01 4.033573952e-01 4.146933480e-01 -5.428786914e-01 4.146913481e-01 -5.428790871e-01 5.692564166e-01 4.077359666e-01
1.436364e+10 5.906926686e-01 3.970561999e-01 3.949525668e-01 -5.417695527e-01 3.949505319e-01 -5.417698836e-01 5.880913980e-01 4.016661866e-01
1.485859e+10 6.088302029e-01 3.901149871e-01 3.759160052e-01 -5.400544132e-01 3.759139402e-01 -5.400546780e-01 6.061776869e-01 3.949641671e-01
1.535354e+10 6.262279580e-01 3.826006000e-01 3.575723284e-01 -5.378006485e-01 3.575702383e-01 -5.378008463e-01 6.235251881e-01 3.876970084e-01
1.584848e+10 6.428989027e-01 3.745742781e-01 3.399067887e-01 -5.350700344e-01 3.399046784e-01 -5.350701645e-01 6.401471604e-01 3.799262062e-01
1.634343e+10 6.588586214e-01 3.660919124e-01 3.229019476e-01 -5.319189932e-01 3.228998218e-01 -5.319190555e-01 6.560594932e-01 3.717079062e-01
1.683838e+10 6.741246889e-01 3.572043348e-01 3.065382987e-01 -5.283988758e-01 3.065361620e-01 -5.283988703e-01 6.712800819e-01 3.630931926e-01
1.733333e+10 6.845195200e-01 3.536613538e-01 2.850218754e-01 -5.311878380e-01 2.850218822e-01 -5.311883499e-01 6.806955535e-01 3.593024326e-01
1.782828e+10 7.026529941e-01 3.383934494e-01 2.756493311e-01 -5.204332896e-01 2.756471859e-01 -5.204331499e-01 6.997245153e-01 3.448554265e-01
1.832323e+10 7.159559164e-01 3.285493466e-01 2.610790631e-01 -5.160679398e-01 2.610769202e-01 -5.160677341e-01 7.129897694e-01 3.353120684e-01
1.881818e+10 7.286458558e-01 3.184590810e-01 2.470607861e-01 -5.114943781e-01 2.470586495e-01 -5.114941076e-01 7.256453989e-01 3.255323234e-01
1.931313e+10 7.407438036e-01 3.081529321e-01 2.335711654e-01 -5.067432411e-01 2.335690393e-01 -5.067429069e-01 7.377128032e-01 3.155467039e-01
1.980808e+10 7.522705738e-01 2.976579927e-01 2.205869574e-01 -5.018419273e-01 2.205848455e-01 -5.018415310e-01 7.492132237e-01 3.053825295e-01
2.030303e+10 7.632466284e-01 2.869984486e-01 2.080851813e-01 -4.968148710e-01 2.080830875e-01 -4.968144143e-01 7.601675699e-01 2.950642056e-01
2.079798e+10 7.736919389e-01 2.761958412e-01 1.960432582e-01 -4.916837989e-01 1.960411859e-01 -4.916832837e-01 7.705962816e-01 2.846134853e-01
2.129293e+10 7.836258770e-01 2.652693139e-01 1.844391181e-01 -4.864679697e-01 1.844370708e-01 -4.864673979e-01 7.805192197e-01 2.740497149e-01
2.178788e+10 7.930671306e-01 2.542358407e-01 1.732512835e-01 -4.811843961e-01 1.732492646e-01 -4.811837700e-01 7.899555836e-01 2.633900606e-01
2.228283e+10 8.020336415e-01 2.431104379e-01 1.624589312e-01 -4.758480504e-01 1.624569438e-01 -4.758473724e-01 7.989238488e-01 2.526497202e-01
2.277778e+10 8.105425602e-01 2.319063601e-01 1.520419368e-01 -4.704720527e-01 1.520399838e-01 -4.704713252e-01 8.074417223e-01 2.418421165e-01
2.327273e+10 8.186102154e-01 2.206352792e-01 1.419809047e-01 -4.650678435e-01 1.419789892e-01 -4.650670691e-01 8.155261133e-01 2.309790762e-01
2.376768e+10 8.262520961e-01 2.093074504e-01 1.322571867e-01 -4.596453411e-01 1.322553114e-01 -4.596445227e-01 8.231931149e-01 2.200709932e-01
2.426263e+10 8.334828427e-01 1.979318625e-01 1.228528907e-01 -4.542130854e-01 1.228510581e-01 -4.542122259e-01 8.304579961e-01 2.091269783e-01
2.475758e+10 8.403162467e-01 1.865163770e-01 1.137508817e-01 -4.487783680e-01 1.137490942e-01 -4.487774704e-01 8.373352023e-01 1.981549958e-01
2.525253e+10 8.467652566e-01 1.750678536e-01 1.049347769e-01 -4.433473498e-01 1.049330369e-01 -4.433464173e-01 8.438383606e-01 1.871619882e-01
2.574747e+10 8.528419890e-01 1.635922669e-01 9.638893673e-02 -4.379251686e-01 9.638724639e-02 -4.379242044e-01 8.499802917e-01 1.761539897e-01
2.624242e+10 8.585577433e-01 1.520948107e-01 8.809845105e-02 -4.325160348e-01 8.809681235e-02 -4.325150424e-01 8.557730250e-01 1.651362296e-01
2.673737e+10 8.639230195e-01 1.405799952e-01 8.004912404e-02 -4.271233190e-01 8.004753882e-02 -4.271223018e-01 8.612278163e-01 1.541132269e-01
2.723232e+10 8.689475393e-01 1.290517349e-01 7.222745662e-02 -4.217496302e-01 7.222592656e-02 -4.217485918e-01 8.663551686e-01 1.430888755e-01
2.772727e+10 8.736402673e-01 1.175134293e-01 6.462062795e-02 -4.163968868e-01 6.461915459e-02 -4.163958309e-01 8.711648534e-01 1.320665233e-01
2.822222e+10 8.780094349e-01 1.059680367e-01 5.721647641e-02 -4.110663798e-01 5.721506110e-02 -4.110653102e-01 8.756659344e-01 1.210490431e-01
2.871717e+10 8.820625638e-01 9.441814233e-02 5.000348028e-02 -4.057588307e-01 5.000212423e-02 -4.057577514e-01 8.798667909e-01 1.100388977e-01
2.921212e+10 8.858064914e-01 8.286602065e-02 4.297073886e-02 -4.004744430e-01 4.296944308e-02 -4.004733579e-01 8.837751414e-01 9.903820020e-02
2.970707e+10 8.892473948e-01 7.131369310e-02 3.610795390e-02 -3.952129488e-01 3.610671923e-02 -3.952118620e-01 8.873980687e-01 8.804876827e-02
3.020202e+10 8.923908168e-01 5.976298132e-02 2.940541190e-02 -3.899736507e-01 2.940423900e-02 -3.899725664e-01 8.907420430e-01 7.707217458e-02
3.069697e+10 8.952416906e-01 4.821555662e-02 2.285396730e-02 -3.847554604e-01 2.285285664e-02 -3.847543828e-01 8.938129467e-01 6.610979313e-02
3.119192e+10 8.978043647e-01 3.667298604e-02 1.644502670e-02 -3.795569330e-01 1.644397857e-02 -3.795558665e-01 8.966160974e-01 5.516284208e-02
3.168687e+10 8.999891529e-01 2.571373224e-02 8.862058786e-03 -3.748147411e-01 8.860548474e-03 -3.748132843e-01 8.990591646e-01 4.491064814e-02
3.218182e+10 9.019868823e-01 1.394855930e-02 3.253764936e-03 -3.695162157e-01 3.252247516e-03 -3.695146616e-01 9.013586970e-01 3.373536276e-02
3.267677e+10 9.037047756e-01 2.192285436e-03 -2.217647370e-03 -3.642604684e-01 -2.219169818e-03 -3.642588169e-01 9.033955339e-01 2.257780944e-02
3.317172e+10 9.051555499e-01 -9.562634953e-03 -7.555261344e-03 -3.590554249e-01 -7.556785784e-03 -3.590536797e-01 9.051763325e-01 1.143369654e-02
3.366667e+10 9.063178893e-01 -2.129475312e-02 -1.278530112e-02 -3.538765003e-01 -1.278682357e-02 -3.538746604e-01 9.066973105e-01 3.192964065e-04
3.416162e+10 9.072022753e-01 -3.300913837e-02 -1.790956494e-02 -3.487305643e-01 -1.791108117e-02 -3.487286313e-01 9.079641204e-01 -1.076981338e-02
3.465657e+10 9.078048761e-01 -4.469470008e-02 -2.293833785e-02 -3.436075713e-01 -2.293784774e-02 -3.436083702e-01 9.089797408e-01 -2.182520599e-02
3.515152e+10 9.081410790e-01 -5.637353003e-02 -2.787418403e-02 -3.385239187e-01 -2.787372818e-02 -3.385247874e-01 9.097465004e-01 -3.286232350e-02
3.564646e+10 9.083597117e-01 -6.673357486e-02 -3.598401336e-02 -3.332767424e-01 -3.598452140e-02 -3.332759792e-01 9.104228111e-01 -4.249463869e-02
3.614141e+10 9.081688028e-01 -7.813661349e-02 -4.132791891e-02 -3.281366658e-01 -4.132837372e-02 -3.281359597e-01 9.107328644e-01 -5.322924803e-02
3.663636e+10 9.077061014e-01 -8.951373412e-02 -4.659069730e-02 -3.229843931e-01 -4.659110117e-02 -3.229837487e-01 9.108028075e-01 -6.393557412e-02
3.713131e+10 9.069709073e-01 -1.008618611e-01 -5.177510583e-02 -3.178161432e-01 -5.177546132e-02 -3.178155651e-01 9.106329110e-01 -7.461177155e-02
3.762626e+10 9.059622731e-01 -1.121776103e-01 -5.688344791e-02 -3.126280742e-01 -5.688375786e-02 -3.126275671e-01 9.102231658e-01 -8.525577918e-02
3.812121e+10 9.046790338e-01 -1.234572658e-01 -6.191757446e-02 -3.074163041e-01 -6.191784196e-02 -3.074158724e-01 9.095733053e-01 -9.586529943e-02
3.861616e+10 9.031198380e-01 -1.346967591e-01 -6.687888491e-02 -3.021769319e-01 -6.687911339e-02 -3.021765803e-01 9.086828289e-01 -1.064377781e-01
3.911111e+10 9.012831806e-01 -1.458916486e-01 -7.176832833e-02 -2.969060604e-01 -7.176852148e-02 -2.969057932e-01 9.075510260e-01 -1.169703851e-01
3.960606e+10 8.991674363e-01 -1.570371003e-01 -7.658640449e-02 -2.915998188e-01 -7.658656629e-02 -2.915996404e-01 9.061770008e-01 -1.274599956e-01
4.010101e+10 8.967708949e-01 -1.681278705e-01 -8.133316540e-02 -2.862543876e-01 -8.133330013e-02 -2.862543020e-01 9.045596984e-01 -1.379031720e-01
4.059596e+10 8.940917983e-01 -1.791582900e-01 -8.600821742e-02 -2.808660237e-01 -8.600832967e-02 -2.808660350e-01 9.026979317e-01 -1.482961471e-01
4.109091e+10 8.911283789e-01 -1.901222495e-01 -9.061072420e-02 -2.754310873e-01 -9.061081883e-02 -2.754311993e-01 9.005904097e-01 -1.586348072e-01
4.158586e+10 8.878788992e-01 -2.010131874e-01 -9.513941076e-02 -2.699460700e-01 -9.513949294e-02 -2.699462863e-01 8.982357669e-01 -1.689146774e-01
4.208081e+10 8.843416945e-01 -2.118240798e-01 -9.959256895e-02 -2.644076238e-01 -9.959264413e-02 -2.644079479e-01 8.956325947e-01 -1.791309068e-01
4.257576e+10 8.805152154e-01 -2.225474327e-01 -1.039680646e-01 -2.588125915e-01 -1.039681386e-01 -2.588130267e-01 8.927794733e-01 -1.892782561e-01
4.307071e+10 8.763980735e-01 -2.331752770e-01 -1.082633469e-01 -2.531580384e-01 -1.082634255e-01 -2.531585876e-01 8.896750066e-01 -1.993510857e-01
4.356566e+10 8.719890881e-01 -2.436991662e-01 -1.124754593e-01 -2.474412846e-01 -1.124755490e-01 -2.474419505e-01 8.863178573e-01 -2.093433460e-01
4.406061e+10 8.672873341e-01 -2.541101774e-01 -1.166010542e-01 -2.416599379e-01 -1.166011614e-01 -2.416607229e-01 8.827067850e-01 -2.192485693e-01
4.455556e+10 8.622921917e-01 -2.643989161e-01 -1.206364094e-01 -2.358119282e-01 -1.206365409e-01 -2.358128343e-01 8.788406847e-01 -2.290598640e-01
4.505051e+10 8.570033972e-01 -2.745555246e-01 -1.245774483e-01 -2.298955408e-01 -1.245776111e-01 -2.298965697e-01 8.747186283e-01 -2.387699111e-01
4.554545e+10 8.514210946e-01 -2.845696940e-01 -1.284197634e-01 -2.239094507e-01 -1.284199647e-01 -2.239106039e-01 8.703399071e-01 -2.483709631e-01
4.604040e+10 8.455458883e-01 -2.944306817e-01 -1.321586433e-01 -2.178527566e-01 -1.321588905e-01 -2.178540349e-01 8.657040754e-01 -2.578548466e-01
4.653535e+10 8.393788953e-01 -3.041273329e-01 -1.357891037e-01 -2.117250125e-01 -1.357894044e-01 -2.117264165e-01 8.608109969e-01 -2.672129673e-01
4.703030e+10 8.329217982e-01 -3.136481071e-01 -1.393059221e-01 -2.055262601e-01 -1.393062839e-01 -2.055277899e-01 8.556608908e-01 -2.764363193e-01
4.752525e+10 8.261768973e-01 -3.229811098e-01 -1.427036769e-01 -1.992570578e-01 -1.427041077e-01 -1.992587130e-01 8.502543803e-01 -2.855154981e-01
4.802020e+10 8.191471620e-01 -3.321141305e-01 -1.459767903e-01 -1.929185076e-01 -1.459772978e-01 -1.929202875e-01 8.445925411e-01 -2.944407180e-01
4.851515e+10 8.118362803e-01 -3.410346849e-01 -1.491195750e-01 -1.865122795e-01 -1.491201672e-01 -1.865141828e-01 8.386769509e-01 -3.032018337e-01
4.901010e+10 8.042487065e-01 -3.497300643e-01 -1.521262853e-01 -1.800406317e-01 -1.521269702e-01 -1.800426565e-01 8.325097379e-01 -3.117883682e-01
4.950505e+10 7.963897060e-01 -3.581873899e-01 -1.549911714e-01 -1.735064268e-01 -1.549919568e-01 -1.735085709e-01 8.260936304e-01 -3.201895440e-01
5.000000e+10 7.904354829e-01 -3.675206808e-01 -1.587204206e-01 -1.664227163e-01 -1.587212250e-01 -1.664251027e-01 8.216575970e-01 -3.278196465e-01
