! rapidmom parametric dataset (SG13G2 open stack, IHP)
! device = spiral
! family = spiral_N2
! stack = IHP SG13G2 (open PDK)
! Dout_um = 200
! width_um = 10
! spacing_um = 3
! sides = 8
! n_ports = 2
! n_dof = 5850
! cell_um = 3.333
! sweep = ROM (rational fit from adaptive anchor solves)
! rom_converged = True
! f_points = 100
! f_min_hz = 1.000e+09
! f_max_hz = 5.000e+10
! tool = rapidmom (2.5D MoM, A-EFIE)
! N = 2
# HZ S RI R 50
1.000000e+09 1.962991356e-02 7.836708750e-02 9.747887093e-01 -9.696035044e-02 9.747886275e-01 -9.696189327e-02 1.963384691e-02 7.835821023e-02
1.494949e+09 2.768520675e-02 1.181928856e-01 9.626508455e-01 -1.404533346e-01 9.626493158e-01 -1.404554178e-01 2.749556072e-02 1.180669701e-01
1.989899e+09 3.999159704e-02 1.554873444e-01 9.482386817e-01 -1.833744608e-01 9.482364088e-01 -1.833762781e-01 3.969634305e-02 1.553507424e-01
2.484848e+09 5.564290387e-02 1.912078884e-01 9.309944043e-01 -2.242293543e-01 9.309916369e-01 -2.242307668e-01 5.522187186e-02 1.910770599e-01
2.979798e+09 7.432271807e-02 2.249294326e-01 9.111269888e-01 -2.629163568e-01 9.111239204e-01 -2.629173331e-01 7.375740039e-02 2.248221437e-01
3.474747e+09 9.567014510e-02 2.563398116e-01 8.888738301e-01 -2.992667027e-01 8.888705995e-01 -2.992672583e-01 9.494400573e-02 2.562754862e-01
3.969697e+09 1.193069584e-01 2.852140232e-01 8.645180613e-01 -3.331142928e-01 8.645147664e-01 -3.331144612e-01 1.184058177e-01 2.852136312e-01
4.464646e+09 1.448512915e-01 3.114004074e-01 8.383752488e-01 -3.643291537e-01 8.383719591e-01 -3.643289735e-01 1.437635872e-01 3.114861301e-01
4.959596e+09 1.719276014e-01 3.348117322e-01 8.107757306e-01 -3.928299101e-01 8.107724958e-01 -3.928294206e-01 1.706445055e-01 3.350065482e-01
5.454545e+09 2.001750334e-01 3.554176259e-01 7.820493414e-01 -4.185856026e-01 7.820461974e-01 -4.185848410e-01 1.986904465e-01 3.557448933e-01
5.949495e+09 2.292543288e-01 3.732370381e-01 7.525136596e-01 -4.416122191e-01 7.525106322e-01 -4.416112201e-01 2.275647813e-01 3.737201097e-01
6.444444e+09 2.588531050e-01 3.883304784e-01 7.224655586e-01 -4.619666745e-01 7.224626661e-01 -4.619654702e-01 2.569575920e-01 3.889923685e-01
6.939394e+09 2.886894401e-01 4.007922060e-01 6.921755875e-01 -4.797397180e-01 6.921728425e-01 -4.797383375e-01 2.865892117e-01 4.016553155e-01
7.434343e+09 3.185138391e-01 4.107426585e-01 6.618846922e-01 -4.950486313e-01 6.618821029e-01 -4.950471015e-01 3.162121651e-01 4.118285598e-01
7.929293e+09 3.481097722e-01 4.183213927e-01 6.318028192e-01 -5.080302456e-01 6.318003905e-01 -5.080285908e-01 3.456116961e-01 4.196506717e-01
8.424242e+09 3.772930375e-01 4.236807412e-01 6.021089819e-01 -5.188345927e-01 6.021067159e-01 -5.188328349e-01 3.746051316e-01 4.252728903e-01
8.919192e+09 4.059102207e-01 4.269803034e-01 5.729524120e-01 -5.276193622e-01 5.729503086e-01 -5.276175212e-01 4.030403509e-01 4.288536600e-01
9.414141e+09 4.345437668e-01 4.277632066e-01 5.445233613e-01 -5.343174427e-01 5.445210060e-01 -5.343143726e-01 4.316935454e-01 4.298879521e-01
9.909091e+09 4.609731326e-01 4.280479325e-01 5.167110366e-01 -5.397720872e-01 5.167092521e-01 -5.397701318e-01 4.577670285e-01 4.305340056e-01
1.040404e+10 4.872445165e-01 4.261342225e-01 4.897951701e-01 -5.434560193e-01 4.897935397e-01 -5.434540291e-01 4.838857124e-01 4.289494901e-01
1.089899e+10 5.125954899e-01 4.227920349e-01 4.637598439e-01 -5.457471176e-01 4.637583626e-01 -5.457451054e-01 5.090950363e-01 4.259502472e-01
1.139394e+10 5.369884791e-01 4.181644013e-01 4.386406480e-01 -5.467878625e-01 4.386393107e-01 -5.467858397e-01 5.333578336e-01 4.216782765e-01
1.188889e+10 5.604008826e-01 4.123855156e-01 4.144583595e-01 -5.467120770e-01 4.144571604e-01 -5.467100536e-01 5.566517967e-01 4.162668104e-01
1.238384e+10 5.828226415e-01 4.055801476e-01 3.912213229e-01 -5.456443174e-01 3.912202560e-01 -5.456423023e-01 5.789670683e-01 4.098397314e-01
1.287879e+10 6.042540417e-01 3.978634060e-01 3.689276101e-01 -5.436996181e-01 3.689266693e-01 -5.436976190e-01 6.003040602e-01 4.025113381e-01
1.337374e+10 6.247037599e-01 3.893407728e-01 3.475669433e-01 -5.409835084e-01 3.475661225e-01 -5.409815322e-01 6.206715158e-01 3.943863785e-01
1.386869e+10 6.441871506e-01 3.801083391e-01 3.271223829e-01 -5.375922342e-01 3.271216757e-01 -5.375902868e-01 6.400848108e-01 3.855602850e-01
1.436364e+10 6.627247655e-01 3.702531866e-01 3.075717863e-01 -5.336131253e-01 3.075711868e-01 -5.336112117e-01 6.585644849e-01 3.761195516e-01
1.485859e+10 6.803410880e-01 3.598538675e-01 2.888890564e-01 -5.291250635e-01 2.888885585e-01 -5.291231882e-01 6.761349866e-01 3.661422109e-01
1.535354e+10 6.970634639e-01 3.489809447e-01 2.710451950e-01 -5.241990120e-01 2.710447929e-01 -5.241971787e-01 6.928236130e-01 3.556983691e-01
1.584848e+10 7.129212075e-01 3.376975651e-01 2.540091845e-01 -5.188985784e-01 2.540088724e-01 -5.188967902e-01 7.086596230e-01 3.448507752e-01
1.634343e+10 7.279448621e-01 3.260600424e-01 2.377487149e-01 -5.132805878e-01 2.377484873e-01 -5.132788474e-01 7.236735046e-01 3.336553983e-01
1.683838e+10 7.421655944e-01 3.141184332e-01 2.222307796e-01 -5.073956510e-01 2.222306312e-01 -5.073939605e-01 7.378963745e-01 3.221619998e-01
1.733333e+10 7.552964397e-01 3.018463585e-01 2.080333721e-01 -5.014558886e-01 2.080331814e-01 -5.014550995e-01 7.511441834e-01 3.102617311e-01
1.782828e+10 7.683232397e-01 2.894952229e-01 1.932897842e-01 -4.949995851e-01 1.932897790e-01 -4.949979995e-01 7.640938771e-01 2.984524402e-01
1.832323e+10 7.803216764e-01 2.768873423e-01 1.798010745e-01 -4.885634244e-01 1.798011337e-01 -4.885618928e-01 7.761299946e-01 2.863096117e-01
1.881818e+10 7.916396923e-01 2.641237851e-01 1.669241302e-01 -4.820112079e-01 1.669242493e-01 -4.820097312e-01 7.874975292e-01 2.740163875e-01
1.931313e+10 8.023059813e-01 2.512311178e-01 1.546279240e-01 -4.753701510e-01 1.546280987e-01 -4.753687298e-01 7.982252023e-01 2.615992169e-01
1.980808e+10 8.123481218e-01 2.382325397e-01 1.428824228e-01 -4.686640991e-01 1.428826490e-01 -4.686627335e-01 8.083406418e-01 2.490812057e-01
2.030303e+10 8.217924836e-01 2.251482462e-01 1.316586736e-01 -4.619138828e-01 1.316589474e-01 -4.619125729e-01 8.178702907e-01 2.364824765e-01
2.079798e+10 8.306641665e-01 2.119957589e-01 1.209288579e-01 -4.551376417e-01 1.209291755e-01 -4.551363873e-01 8.268393462e-01 2.238204959e-01
2.129293e+10 8.389869639e-01 1.987902261e-01 1.106663209e-01 -4.483511158e-01 1.106666788e-01 -4.483499166e-01 8.352717246e-01 2.111103712e-01
2.178788e+10 8.467833471e-01 1.855446932e-01 1.008455796e-01 -4.415679087e-01 1.008459745e-01 -4.415667643e-01 8.431900467e-01 1.983651191e-01
2.228283e+10 8.540744654e-01 1.722703476e-01 9.144231582e-02 -4.347997237e-01 9.144274451e-02 -4.347986335e-01 8.506156380e-01 1.855959072e-01
2.277778e+10 8.608801586e-01 1.589767390e-01 8.243335602e-02 -4.280565748e-01 8.243381547e-02 -4.280555382e-01 8.575685422e-01 1.728122723e-01
2.327273e+10 8.672189787e-01 1.456719778e-01 7.379664172e-02 -4.213469754e-01 7.379712906e-02 -4.213459915e-01 8.640675435e-01 1.600223159e-01
2.376768e+10 8.731082185e-01 1.323629131e-01 6.551119293e-02 -4.146781063e-01 6.551170546e-02 -4.146771743e-01 8.701301957e-01 1.472328808e-01
2.426263e+10 8.785639457e-01 1.190552937e-01 5.755706637e-02 -4.080559643e-01 5.755760153e-02 -4.080550832e-01 8.757728568e-01 1.344497086e-01
2.475758e+10 8.836010398e-01 1.057539119e-01 4.991531001e-02 -4.014854948e-01 4.991586538e-02 -4.014846634e-01 8.810107268e-01 1.216775824e-01
2.525253e+10 8.882332316e-01 9.246273381e-02 4.256791536e-02 -3.949707077e-01 4.256848865e-02 -3.949699252e-01 8.858578872e-01 1.089204543e-01
2.574747e+10 8.924731438e-01 7.918501649e-02 3.549776854e-02 -3.885147809e-01 3.549835760e-02 -3.885140459e-01 8.903273424e-01 9.618156034e-02
2.624242e+10 8.963323314e-01 6.592341411e-02 2.868860075e-02 -3.821201494e-01 2.868920354e-02 -3.821194609e-01 8.944310614e-01 8.346352453e-02
2.673737e+10 8.998213230e-01 5.268007402e-02 2.212493906e-02 -3.757885849e-01 2.212555367e-02 -3.757879416e-01 8.981800187e-01 7.076845250e-02
2.723232e+10 9.029496608e-01 3.945672438e-02 1.579205774e-02 -3.695212634e-01 1.579268237e-02 -3.695206640e-01 9.015842353e-01 5.809801663e-02
2.772727e+10 9.057259396e-01 2.625475414e-02 9.675930783e-03 -3.633188247e-01 9.676563733e-03 -3.633182678e-01 9.046528185e-01 4.545353352e-02
2.822222e+10 9.081535085e-01 1.307407716e-02 3.662012764e-03 -3.572702044e-01 3.662610908e-03 -3.572696993e-01 9.073970422e-01 3.285979029e-02
2.871717e+10 9.102456403e-01 -1.557020923e-05 -2.047111250e-03 -3.511222424e-01 -2.046493848e-03 -3.511217684e-01 9.098249313e-01 2.030007673e-02
2.921212e+10 9.120149523e-01 -1.321257186e-02 -7.502646062e-03 -3.451001624e-01 -7.501997288e-03 -3.450997255e-01 9.119229422e-01 7.685078994e-03
2.970707e+10 9.134502067e-01 -2.626021704e-02 -1.295086932e-02 -3.391065248e-01 -1.295021762e-02 -3.391061127e-01 9.137345174e-01 -4.806401325e-03
3.020202e+10 9.145634862e-01 -3.938935219e-02 -1.816882077e-02 -3.332229229e-01 -1.816815372e-02 -3.332225414e-01 9.152259656e-01 -1.733859352e-02
3.069697e+10 9.153561116e-01 -5.246104524e-02 -2.323803992e-02 -3.273793567e-01 -2.323735874e-02 -3.273790049e-01 9.164228052e-01 -2.982295285e-02
3.119192e+10 9.158318471e-01 -6.549882585e-02 -2.817183773e-02 -3.215904311e-01 -2.817114360e-02 -3.215901082e-01 9.173260393e-01 -4.227249319e-02
3.168687e+10 9.160098906e-01 -7.848282552e-02 -3.293706406e-02 -3.159681558e-01 -3.293641403e-02 -3.159678916e-01 9.179396300e-01 -5.467597807e-02
3.218182e+10 9.158660349e-01 -9.145308526e-02 -3.763952795e-02 -3.103093391e-01 -3.763888074e-02 -3.103091054e-01 9.182648258e-01 -6.705507733e-02
3.267677e+10 9.154117919e-01 -1.043926772e-01 -4.223623720e-02 -3.047000150e-01 -4.223559367e-02 -3.046998105e-01 9.183031620e-01 -7.940126979e-02
3.317172e+10 9.146476228e-01 -1.172999383e-01 -4.673613348e-02 -2.991368107e-01 -4.673549445e-02 -2.991366341e-01 9.180560148e-01 -9.171337565e-02
3.366667e+10 9.135748399e-01 -1.302317131e-01 -5.111752664e-02 -2.934917546e-01 -5.111678337e-02 -2.934915645e-01 9.175366584e-01 -1.040182568e-01
3.416162e+10 9.121886594e-01 -1.430091005e-01 -5.547983922e-02 -2.881335746e-01 -5.547921142e-02 -2.881334498e-01 9.167082641e-01 -1.162292313e-01
3.465657e+10 9.104922032e-01 -1.558058126e-01 -5.974016305e-02 -2.826850519e-01 -5.973954190e-02 -2.826849512e-01 9.156080051e-01 -1.284291161e-01
3.515152e+10 9.084825736e-01 -1.685597149e-01 -6.393672365e-02 -2.772656250e-01 -6.393610981e-02 -2.772655472e-01 9.142230248e-01 -1.405870981e-01
3.564646e+10 9.061578797e-01 -1.812669795e-01 -6.807715584e-02 -2.718700492e-01 -6.807654992e-02 -2.718699931e-01 9.125525118e-01 -1.527002338e-01
3.614141e+10 9.035158887e-01 -1.939231915e-01 -7.216884761e-02 -2.664926284e-01 -7.216825022e-02 -2.664925928e-01 9.105953373e-01 -1.647650968e-01
3.663636e+10 9.005540787e-01 -2.065232966e-01 -7.621893249e-02 -2.611271809e-01 -7.621834424e-02 -2.611271647e-01 9.083501033e-01 -1.767777342e-01
3.713131e+10 8.972696977e-01 -2.190615474e-01 -8.023427525e-02 -2.557670018e-01 -8.023369672e-02 -2.557670039e-01 9.058151963e-01 -1.887336228e-01
3.762626e+10 8.936598308e-01 -2.315314512e-01 -8.422145003e-02 -2.504048229e-01 -8.422088184e-02 -2.504048423e-01 9.029888459e-01 -2.006276265e-01
3.812121e+10 8.897214733e-01 -2.439257170e-01 -8.818671016e-02 -2.450327694e-01 -8.818615292e-02 -2.450328049e-01 8.998691915e-01 -2.124539543e-01
3.861616e+10 8.854516156e-01 -2.562362058e-01 -9.213594850e-02 -2.396423152e-01 -9.213540289e-02 -2.396423659e-01 8.964543554e-01 -2.242061212e-01
3.911111e+10 8.808473361e-01 -2.684538829e-01 -9.607464738e-02 -2.342242371e-01 -9.607411409e-02 -2.342243020e-01 8.927425246e-01 -2.358769105e-01
3.960606e+10 8.759059071e-01 -2.805687748e-01 -1.000078168e-01 -2.287685692e-01 -1.000072966e-01 -2.287686474e-01 8.887320427e-01 -2.474583428e-01
4.010101e+10 8.706249120e-01 -2.925699322e-01 -1.039399199e-01 -2.232645578e-01 -1.039394135e-01 -2.232646482e-01 8.844215105e-01 -2.589416486e-01
4.059596e+10 8.650023764e-01 -3.044454017e-01 -1.078747843e-01 -2.177006196e-01 -1.078742927e-01 -2.177007213e-01 8.798098982e-01 -2.703172502e-01
4.109091e+10 8.590369126e-01 -3.161822079e-01 -1.118154984e-01 -2.120643048e-01 -1.118150226e-01 -2.120644168e-01 8.748966690e-01 -2.815747530e-01
4.158586e+10 8.527278785e-01 -3.277663499e-01 -1.157642913e-01 -2.063422671e-01 -1.157638324e-01 -2.063423884e-01 8.696819130e-01 -2.927029500e-01
4.208081e+10 8.460755507e-01 -3.391828155e-01 -1.197223955e-01 -2.005202434e-01 -1.197219547e-01 -2.005203730e-01 8.641664927e-01 -3.036898415e-01
4.257576e+10 8.390813111e-01 -3.504156166e-01 -1.236898920e-01 -1.945830472e-01 -1.236894707e-01 -1.945831841e-01 8.583521992e-01 -3.145226743e-01
4.307071e+10 8.317478453e-01 -3.614478511e-01 -1.276655372e-01 -1.885145790e-01 -1.276651367e-01 -1.885147219e-01 8.522419168e-01 -3.251880043e-01
4.356566e+10 8.240793510e-01 -3.722617953e-01 -1.316465718e-01 -1.822978572e-01 -1.316461939e-01 -1.822980049e-01 8.458397936e-01 -3.356717851e-01
4.406061e+10 8.164848133e-01 -3.832147566e-01 -1.357232650e-01 -1.760928579e-01 -1.357229689e-01 -1.760929906e-01 8.396734530e-01 -3.461814295e-01
4.455556e+10 8.077629179e-01 -3.931606229e-01 -1.396049363e-01 -1.693476989e-01 -1.396046089e-01 -1.693478518e-01 8.321839859e-01 -3.560362627e-01
4.505051e+10 7.991328667e-01 -4.032073181e-01 -1.435672322e-01 -1.625765756e-01 -1.435669333e-01 -1.625767285e-01 8.249464776e-01 -3.658871224e-01
4.554545e+10 7.902039707e-01 -4.129598277e-01 -1.475043743e-01 -1.555821215e-01 -1.475041061e-01 -1.555822725e-01 8.174497988e-01 -3.754971920e-01
4.604040e+10 7.813415927e-01 -4.228127960e-01 -1.515426621e-01 -1.484521598e-01 -1.515424295e-01 -1.484523187e-01 8.101738765e-01 -3.851438809e-01
4.653535e+10 7.715118897e-01 -4.315068844e-01 -1.552455286e-01 -1.408440505e-01 -1.552453292e-01 -1.408441905e-01 8.017329348e-01 -3.939377348e-01
4.703030e+10 7.617865735e-01 -4.402657818e-01 -1.590132306e-01 -1.330613096e-01 -1.590130697e-01 -1.330614397e-01 7.935451740e-01 -4.027417633e-01
4.752525e+10 7.518382621e-01 -4.486600990e-01 -1.626827411e-01 -1.249777140e-01 -1.626826213e-01 -1.249778308e-01 7.851631244e-01 -4.112528954e-01
4.802020e+10 7.416927592e-01 -4.566761798e-01 -1.662275486e-01 -1.165759026e-01 -1.662274730e-01 -1.165760022e-01 7.766083744e-01 -4.194619003e-01
4.851515e+10 7.313784329e-01 -4.643029914e-01 -1.696175656e-01 -1.078402669e-01 -1.696175370e-01 -1.078403449e-01 7.679044320e-01 -4.273619540e-01
4.901010e+10 7.209259493e-01 -4.715326848e-01 -1.728190972e-01 -9.875753065e-02 -1.728191183e-01 -9.875758198e-02 7.590764489e-01 -4.349491031e-01
4.950505e+10 7.103678828e-01 -4.783611441e-01 -1.757948985e-01 -8.931737995e-02 -1.757949721e-01 -8.931739901e-02 7.501508358e-01 -4.422227098e-01
5.000000e+10 6.995169958e-01 -4.841260270e-01 -1.783365345e-01 -7.951097439e-02 -1.783366495e-01 -7.951096163e-02 7.407263044e-01 -4.486084648e-01
